  Job Started  at 10:13.06  9th November   2011

  Number of CPUs =     1

  Total number of configurations input =   1

*  Input for Configuration =   1                                               *

  Formula = Ag4O2

  Number of irreducible atoms/shells =       2

  Total number atoms/shells =       6

  Dimensionality = 3               :  Bulk

  Symmetry :

  Crystal family                   :  Cubic
  Crystal class  (Groth - 1921)    :  Cubic Hexakisoctahedral

  Space group (centrosymmetric)    :  P N 3 M

  Patterson group                  :  P m -3 m

  Cartesian lattice vectors (Angstroms) :

        4.826100    0.000000    0.000000
        0.000000    4.826100    0.000000
        0.000000    0.000000    4.826100

  Cell parameters (Angstroms/Degrees):

  a =       4.8261    alpha =  90.0000
  b =       4.8261    beta  =  90.0000
  c =       4.8261    gamma =  90.0000

  Initial cell volume =         112.405859 Angs**3

  Temperature of configuration =  0.000     K

  Pressure of configuration =         0.000 GPa

  Fractional coordinates of asymmetric unit :

   No.  Atomic       x           y          z         Charge      Occupancy
        Label      (Frac)      (Frac)     (Frac)        (e)         (Frac)
      1 Ag    c    0.250000    0.250000    0.250000      1.0000    1.000000
      2 O     c    0.000000    0.000000    0.000000     -2.0000    1.000000

  Distance calculation :

  Cutoff for distances  =      2.000000 Angstroms

  Asymmetric unit site  Full lattice sites    No.  Distance      No.  Distance
      No.   At.No.            At.No.                (Angs)             (Angs)

*  General input information                                                   *

  Species output for all configurations :

  Species    Type    Atomic    Atomic    Charge       Radii (Angs)     Library
                     Number     Mass       (e)     Cova   Ionic  VDW   Symbol
    Ag       Core       47     107.87     1.0000   1.590  0.000  2.370
    O        Core        8      16.00    -2.0000   0.730  0.000  1.360

  Lattice summation method               =    Ewald
  Accuracy factor for lattice sums       =    8.000

  Time limit = Infinity

*  Output for configuration   1                                                *

  Components of energy :

  Interatomic potentials     =           0.00000000 eV
  Monopole - monopole (real) =         -20.10604891 eV
  Monopole - monopole (recip)=         -41.11676153 eV
  Monopole - monopole (total)=         -61.22281044 eV
  Total lattice energy       =         -61.22281044 eV
  Total lattice energy       =           -5907.0653 kJ/(mole unit cells)

  Electrostatic potential at atomic positions :

 Site  Atomic      Potential                Derivatives (V/Angs)
 No.   Label          (V)                 x           y           z
     1 Ag    c    -11.287214           0.000000    0.000000    0.000000
     2 O     c     19.324192          -0.000000   -0.000000   -0.000000

  Total time to end of lattice properties =       0.0156 s

  Timing analysis for GULP :

  Task / Subroutine                                          Time (Seconds)
  Symmetry generation of equivalent positions                     0.0156

  Job Finished at 10:13.06  9th November   2011