  Job Started  at 12:21.50  1st November   2011

  Number of CPUs =     1

  Total number of configurations input =   1

*  Input for Configuration =   1                                               *

  Formula = Al4O6

  Number of irreducible atoms/shells =       2

  Total number atoms/shells =      10

  Dimensionality = 3               :  Bulk

  Symmetry :

  Crystal family                   :  Hexagonal
  Crystal class  (Groth - 1921)    :  Ditrigonal Scalenohedral

  Space group (centrosymmetric)    :  R -3 C

  Patterson group                  :  R -3 m

  Cartesian lattice vectors (Angstroms) :

        2.382000    1.375248    4.336367
       -2.382000    1.375248    4.336367
        0.000000   -2.750497    4.336367

  Primitive cell parameters :            Full cell parameters :

  a =   5.1351    alpha =  55.2737       a =   4.7640    alpha =  90.0000
  b =   5.1351    beta  =  55.2737       b =   4.7640    beta  =  90.0000
  c =   5.1351    gamma =  55.2737       c =  13.0091    gamma = 120.0000

  Initial volumes (Angstroms**3):

  Primitive cell =          85.231501    Full cell =         255.694502

  Temperature of configuration =  0.000     K

  Pressure of configuration =         0.000 GPa

  Fractional coordinates of asymmetric unit :

   No.  Atomic       x           y          z         Charge      Occupancy
        Label      (Frac)      (Frac)     (Frac)        (e)         (Frac)
      1 Al    c    0.000000    0.000000    0.352100      3.0000    1.000000
      2 O     c    0.306000    0.000000    0.250000     -2.0000    1.000000

*  General input information                                                   *

  Species output for all configurations :

  Species    Type    Atomic    Atomic    Charge       Radii (Angs)     Library
                     Number     Mass       (e)     Cova   Ionic  VDW   Symbol
    Al       Core       13      26.98     3.0000   1.350  0.000  2.050
    O        Core        8      16.00    -2.0000   0.730  0.000  1.360

  Lattice summation method               =    Ewald
  Accuracy factor for lattice sums       =    8.000

  Time limit = Infinity

*  Output for configuration   1                                                *

  Components of energy :

  Interatomic potentials     =           0.00000000 eV
  Monopole - monopole (real) =        -140.34239973 eV
  Monopole - monopole (recip)=        -237.09371106 eV
  Monopole - monopole (total)=        -377.43611079 eV
  Total lattice energy :
    Primitive unit cell      =        -377.43611079 eV
    Non-primitive unit cell  =       -1132.30833238 eV
  Total lattice energy (in kJmol-1):
    Primitive unit cell      =          -36416.8151 kJ/(mole unit cells)
    Non-primitive unit cell  =         -109250.4452 kJ/(mole unit cells)

  Electrostatic potential at atomic positions :

 Site  Atomic      Potential                Derivatives (V/Angs)
 No.   Label          (V)                 x           y           z
     1 Al    c    -36.548019          -0.000000   -0.000000   -0.801479
     2 O     c     26.357999          -0.743241    0.000000   -0.000000

  Total time to end of lattice properties =       0.0000 s

  Timing analysis for GULP :

  Task / Subroutine                                          Time (Seconds)

  Job Finished at 12:21.50  1st November   2011