  Job Started  at 14:38.40 13th December   2011

  Number of CPUs =     1

  Total number of configurations input =   1

*  Input for Configuration =   1                                               *

  Formula = BaO

  Number of irreducible atoms/shells =       2

  Total number atoms/shells =       2

  Dimensionality = 3               :  Bulk

  Symmetry :

  Crystal family                   :  Cubic
  Crystal class  (Groth - 1921)    :  Cubic Hexakisoctahedral

  Space group (centrosymmetric)    :  F M 3 M

  Patterson group                  :  F m -3 m

  Cartesian lattice vectors (Angstroms) :

        0.000000    2.791000    2.791000
        2.791000    0.000000    2.791000
        2.791000    2.791000    0.000000

  Primitive cell parameters :            Full cell parameters :

  a =   3.9471    alpha =  60.0000       a =   5.5820    alpha =  90.0000
  b =   3.9471    beta  =  60.0000       b =   5.5820    beta  =  90.0000
  c =   3.9471    gamma =  60.0000       c =   5.5820    gamma =  90.0000

  Initial volumes (Angstroms**3):

  Primitive cell =          43.481999    Full cell =         173.927997

  Temperature of configuration =  0.000     K

  Pressure of configuration =         0.000 GPa

  Fractional coordinates of asymmetric unit :

   No.  Atomic       x           y          z         Charge      Occupancy
        Label      (Frac)      (Frac)     (Frac)        (e)         (Frac)
      1 Ba    c    0.500000    0.500000    0.500000      2.0000    1.000000
      2 O     c    0.000000    0.000000    0.000000     -2.0000    1.000000

  Distance calculation :

  Cutoff for distances  =      2.000000 Angstroms

  Asymmetric unit site  Full lattice sites    No.  Distance      No.  Distance
      No.   At.No.            At.No.                (Angs)             (Angs)

*  General input information                                                   *

  Species output for all configurations :

  Species    Type    Atomic    Atomic    Charge       Radii (Angs)     Library
                     Number     Mass       (e)     Cova   Ionic  VDW   Symbol
    Ba       Core       56     137.33     2.0000   1.340  0.000  2.000
    O        Core        8      16.00    -2.0000   0.730  0.000  1.360

  Lattice summation method               =    Ewald
  Accuracy factor for lattice sums       =    8.000

  Time limit = Infinity

*  Output for configuration   1                                                *

  Components of energy :

  Interatomic potentials     =           0.00000000 eV
  Monopole - monopole (real) =          -3.86026057 eV
  Monopole - monopole (recip)=         -32.20496040 eV
  Monopole - monopole (total)=         -36.06522097 eV
  Total lattice energy :
    Primitive unit cell      =         -36.06522097 eV
    Non-primitive unit cell  =        -144.26088389 eV
  Total lattice energy (in kJmol-1):
    Primitive unit cell      =           -3479.7425 kJ/(mole unit cells)
    Non-primitive unit cell  =          -13918.9701 kJ/(mole unit cells)

  Electrostatic potential at atomic positions :

 Site  Atomic      Potential                Derivatives (V/Angs)
 No.   Label          (V)                 x           y           z
     1 Ba    c    -18.032610           0.000000    0.000000    0.000000
     2 O     c     18.032610          -0.000000   -0.000000   -0.000000

  Total time to end of lattice properties =       0.0156 s

  Timing analysis for GULP :

  Task / Subroutine                                          Time (Seconds)
  Calculation of real space energy using symmetry                 0.0156

  Job Finished at 14:38.40 13th December   2011