  Job Started  at 14:26.57  9th November   2011

  Number of CPUs =     1

  Total number of configurations input =   1

*  Input for Configuration =   1                                               *

  Formula = Bi8O12

  Number of irreducible atoms/shells =       5

  Total number atoms/shells =      20

  Dimensionality = 3               :  Bulk

  Symmetry :

  Crystal family                   :  Monoclinic
  Crystal class  (Groth - 1921)    :  Monoclinic Prismatic

  Space group (centrosymmetric)    :  P 21/C

  Patterson group                  :  P 2/m

  Cartesian lattice vectors (Angstroms) :

        5.848600    0.000000    0.000000
        0.000000    8.166100    0.000000
       -2.934274    0.000000    6.912715

  Cell parameters (Angstroms/Degrees):

  a =       5.8486    alpha =  90.0000
  b =       8.1661    beta  = 113.0000
  c =       7.5097    gamma =  90.0000

  Initial cell volume =         330.153028 Angs**3

  Temperature of configuration =  0.000     K

  Pressure of configuration =         0.000 GPa

  Fractional coordinates of asymmetric unit :

   No.  Atomic       x           y          z         Charge      Occupancy
        Label      (Frac)      (Frac)     (Frac)        (e)         (Frac)
      1 Bi    c    0.524000    0.183100    0.361300      3.0000    1.000000
      2 Bi    c    0.040900    0.042500    0.776200      3.0000    1.000000
      3 O     c    0.780400    0.300300    0.710300     -2.0000    1.000000
      4 O     c    0.242500    0.044400    0.134400     -2.0000    1.000000
      5 O     c    0.271400    0.024300    0.513300     -2.0000    1.000000

  Distance calculation :

  Cutoff for distances  =      2.000000 Angstroms

  Asymmetric unit site  Full lattice sites    No.  Distance      No.  Distance
      No.   At.No.            At.No.                (Angs)             (Angs)

*  General input information                                                   *

  Species output for all configurations :

  Species    Type    Atomic    Atomic    Charge       Radii (Angs)     Library
                     Number     Mass       (e)     Cova   Ionic  VDW   Symbol
    Bi       Core       83     208.98     3.0000   1.540  0.000  2.300
    O        Core        8      16.00    -2.0000   0.730  0.000  1.360

  Lattice summation method               =    Ewald
  Accuracy factor for lattice sums       =    8.000

  Time limit = Infinity

*  Output for configuration   1                                                *

  Components of energy :

  Interatomic potentials     =           0.00000000 eV
  Monopole - monopole (real) =        -281.62610181 eV
  Monopole - monopole (recip)=        -320.60570559 eV
  Monopole - monopole (total)=        -602.23180740 eV
  Total lattice energy       =        -602.23180740 eV
  Total lattice energy       =          -58106.1635 kJ/(mole unit cells)

  Electrostatic potential at atomic positions :

 Site  Atomic      Potential                Derivatives (V/Angs)
 No.   Label          (V)                 x           y           z
     1 Bi    c    -29.734365          -2.306762    4.829102    0.193637
     2 Bi    c    -29.796486           3.373878    3.253700    0.354465
     3 O     c     20.758449          -0.985523    1.397709    0.385714
     4 O     c     20.491495          -1.240757    1.520837    1.331042
     5 O     c     20.011731           0.535476   -2.771085   -0.129429

  Total time to end of lattice properties =       0.0156 s

  Timing analysis for GULP :

  Task / Subroutine                                          Time (Seconds)
  Calculation of reciprocal space energy and derivatives          0.0156

  Job Finished at 14:26.57  9th November   2011