  Job Started  at 12:44.38  1st November   2011

  Number of CPUs =     1

  Total number of configurations input =   1

*  Input for Configuration =   1                                               *

  Formula = CaO

  Number of irreducible atoms/shells =       2

  Total number atoms/shells =       2

  Dimensionality = 3               :  Bulk

  Symmetry :

  Crystal family                   :  Cubic
  Crystal class  (Groth - 1921)    :  Cubic Hexakisoctahedral

  Space group (centrosymmetric)    :  F M 3 M

  Patterson group                  :  F m -3 m

  Cartesian lattice vectors (Angstroms) :

        0.000000    2.398500    2.398500
        2.398500    0.000000    2.398500
        2.398500    2.398500    0.000000

  Primitive cell parameters :            Full cell parameters :

  a =   3.3920    alpha =  60.0000       a =   4.7970    alpha =  90.0000
  b =   3.3920    beta  =  60.0000       b =   4.7970    beta  =  90.0000
  c =   3.3920    gamma =  60.0000       c =   4.7970    gamma =  90.0000

  Initial volumes (Angstroms**3):

  Primitive cell =          27.596192    Full cell =         110.384770

  Temperature of configuration =  0.000     K

  Pressure of configuration =         0.000 GPa

  Fractional coordinates of asymmetric unit :

   No.  Atomic       x           y          z         Charge      Occupancy
        Label      (Frac)      (Frac)     (Frac)        (e)         (Frac)
      1 Ca    c    0.000000    0.000000    0.000000      2.0000    1.000000
      2 O     c    0.500000    0.000000    0.000000     -2.0000    1.000000

*  General input information                                                   *

  Species output for all configurations :

  Species    Type    Atomic    Atomic    Charge       Radii (Angs)     Library
                     Number     Mass       (e)     Cova   Ionic  VDW   Symbol
    Ca       Core       20      40.08     2.0000   0.990  0.000  2.750
    O        Core        8      16.00    -2.0000   0.730  0.000  1.360

  Lattice summation method               =    Ewald
  Accuracy factor for lattice sums       =    8.000

  Time limit = Infinity

*  Output for configuration   1                                                *

  Components of energy :

  Interatomic potentials     =           0.00000000 eV
  Monopole - monopole (real) =          -4.49196884 eV
  Monopole - monopole (recip)=         -37.47510714 eV
  Monopole - monopole (total)=         -41.96707598 eV
  Total lattice energy :
    Primitive unit cell      =         -41.96707598 eV
    Non-primitive unit cell  =        -167.86830391 eV
  Total lattice energy (in kJmol-1):
    Primitive unit cell      =           -4049.1813 kJ/(mole unit cells)
    Non-primitive unit cell  =          -16196.7252 kJ/(mole unit cells)

  Electrostatic potential at atomic positions :

 Site  Atomic      Potential                Derivatives (V/Angs)
 No.   Label          (V)                 x           y           z
     1 Ca    c    -20.983538           0.000000    0.000000    0.000000
     2 O     c     20.983538          -0.000000   -0.000000   -0.000000

  Total time to end of lattice properties =       0.0156 s

  Timing analysis for GULP :

  Task / Subroutine                                          Time (Seconds)
  Symmetry generation of equivalent positions                     0.0156

  Job Finished at 12:44.38  1st November   2011