  Job Started  at 14:16.50  8th November   2011

  Number of CPUs =     1

  Total number of configurations input =   1

*  Input for Configuration =   1                                               *

  Formula = CdO

  Number of irreducible atoms/shells =       2

  Total number atoms/shells =       2

  Dimensionality = 3               :  Bulk

  Symmetry :

  Crystal family                   :  Cubic
  Crystal class  (Groth - 1921)    :  Cubic Hexakisoctahedral

  Space group (centrosymmetric)    :  F M 3 M

  Patterson group                  :  F m -3 m

  Cartesian lattice vectors (Angstroms) :

        0.000000    2.347400    2.347400
        2.347400    0.000000    2.347400
        2.347400    2.347400    0.000000

  Primitive cell parameters :            Full cell parameters :

  a =   3.3197    alpha =  60.0000       a =   4.6948    alpha =  90.0000
  b =   3.3197    beta  =  60.0000       b =   4.6948    beta  =  90.0000
  c =   3.3197    gamma =  60.0000       c =   4.6948    gamma =  90.0000

  Initial volumes (Angstroms**3):

  Primitive cell =          25.869694    Full cell =         103.478777

  Temperature of configuration =  0.000     K

  Pressure of configuration =         0.000 GPa

  Fractional coordinates of asymmetric unit :

   No.  Atomic       x           y          z         Charge      Occupancy
        Label      (Frac)      (Frac)     (Frac)        (e)         (Frac)
      1 Cd    c    0.000000    0.000000    0.000000      2.0000    1.000000
      2 O     c    0.500000    0.500000    0.500000     -2.0000    1.000000

  Distance calculation :

  Cutoff for distances  =      2.000000 Angstroms

  Asymmetric unit site  Full lattice sites    No.  Distance      No.  Distance
      No.   At.No.            At.No.                (Angs)             (Angs)

*  General input information                                                   *

  Species output for all configurations :

  Species    Type    Atomic    Atomic    Charge       Radii (Angs)     Library
                     Number     Mass       (e)     Cova   Ionic  VDW   Symbol
    Cd       Core       48     112.41     2.0000   1.690  0.000  2.520
    O        Core        8      16.00    -2.0000   0.730  0.000  1.360

  Lattice summation method               =    Ewald
  Accuracy factor for lattice sums       =    8.000

  Time limit = Infinity

*  Output for configuration   1                                                *

  Components of energy :

  Interatomic potentials     =           0.00000000 eV
  Monopole - monopole (real) =          -4.58975346 eV
  Monopole - monopole (recip)=         -38.29089395 eV
  Monopole - monopole (total)=         -42.88064741 eV
  Total lattice energy :
    Primitive unit cell      =         -42.88064741 eV
    Non-primitive unit cell  =        -171.52258964 eV
  Total lattice energy (in kJmol-1):
    Primitive unit cell      =           -4137.3270 kJ/(mole unit cells)
    Non-primitive unit cell  =          -16549.3079 kJ/(mole unit cells)

  Electrostatic potential at atomic positions :

 Site  Atomic      Potential                Derivatives (V/Angs)
 No.   Label          (V)                 x           y           z
     1 Cd    c    -21.440324          -0.000000   -0.000000   -0.000000
     2 O     c     21.440324          -0.000000   -0.000000   -0.000000

  Total time to end of lattice properties =       0.0000 s

  Timing analysis for GULP :

  Task / Subroutine                                          Time (Seconds)

  Job Finished at 14:16.50  8th November   2011