  Job Started  at 11:03.21  2nd November   2011

  Number of CPUs =     1

  Total number of configurations input =   1

*  Input for Configuration =   1                                               *

  Formula = Cr4O6

  Number of irreducible atoms/shells =       2

  Total number atoms/shells =      10

  Dimensionality = 3               :  Bulk

  Symmetry :

  Crystal family                   :  Hexagonal
  Crystal class  (Groth - 1921)    :  Ditrigonal Scalenohedral

  Space group (centrosymmetric)    :  R -3 C

  Patterson group                  :  R -3 m

  Cartesian lattice vectors (Angstroms) :

        2.480350    1.432031    4.533000
       -2.480350    1.432031    4.533000
        0.000000   -2.864061    4.533000

  Primitive cell parameters :            Full cell parameters :

  a =   5.3620    alpha =  55.1074       a =   4.9607    alpha =  90.0000
  b =   5.3620    beta  =  55.1074       b =   4.9607    beta  =  90.0000
  c =   5.3620    gamma =  55.1074       c =  13.5990    gamma = 120.0000

  Initial volumes (Angstroms**3):

  Primitive cell =          96.605595    Full cell =         289.816784

  Temperature of configuration =  0.000     K

  Pressure of configuration =         0.000 GPa

  Fractional coordinates of asymmetric unit :

   No.  Atomic       x           y          z         Charge      Occupancy
        Label      (Frac)      (Frac)     (Frac)        (e)         (Frac)
      1 Cr    c    0.000000    0.000000    0.347500      3.0000    1.000000
      2 O     c    0.306400    0.000000    0.250000     -2.0000    1.000000

*  General input information                                                   *

  Species output for all configurations :

  Species    Type    Atomic    Atomic    Charge       Radii (Angs)     Library
                     Number     Mass       (e)     Cova   Ionic  VDW   Symbol
    Cr       Core       24      52.00     3.0000   1.350  0.000  2.010
    O        Core        8      16.00    -2.0000   0.730  0.000  1.360

  Lattice summation method               =    Ewald
  Accuracy factor for lattice sums       =    8.000

  Time limit = Infinity

*  Output for configuration   1                                                *

  Components of energy :

  Interatomic potentials     =           0.00000000 eV
  Monopole - monopole (real) =        -134.20025860 eV
  Monopole - monopole (recip)=        -227.21900021 eV
  Monopole - monopole (total)=        -361.41925881 eV
  Total lattice energy :
    Primitive unit cell      =        -361.41925881 eV
    Non-primitive unit cell  =       -1084.25777642 eV
  Total lattice energy (in kJmol-1):
    Primitive unit cell      =          -34871.4337 kJ/(mole unit cells)
    Non-primitive unit cell  =         -104614.3010 kJ/(mole unit cells)

  Electrostatic potential at atomic positions :

 Site  Atomic      Potential                Derivatives (V/Angs)
 No.   Label          (V)                 x           y           z
     1 Cr    c    -34.876290          -0.000000   -0.000000   -0.820457
     2 O     c     25.360253          -1.944964    0.000000   -0.000000

  Total time to end of lattice properties =       0.0000 s

  Timing analysis for GULP :

  Task / Subroutine                                          Time (Seconds)

  Job Finished at 11:03.21  2nd November   2011