  Job Started  at 15:36.36  8th November   2011

  Number of CPUs =     1

  Total number of configurations input =   1

*  Input for Configuration =   1                                               *

  Formula = Cs2O

  Number of irreducible atoms/shells =       2

  Total number atoms/shells =       3

  Dimensionality = 3               :  Bulk

  Symmetry :

  Crystal family                   :  Hexagonal
  Crystal class  (Groth - 1921)    :  Ditrigonal Scalenohedral

  Space group (centrosymmetric)    :  R -3 M

  Patterson group                  :  R -3 m

  Cartesian lattice vectors (Angstroms) :

        2.128200    1.228717    6.330067
       -2.128200    1.228717    6.330067
        0.000000   -2.457434    6.330067

  Primitive cell parameters :            Full cell parameters :

  a =   6.7903    alpha =  36.5304       a =   4.2564    alpha =  90.0000
  b =   6.7903    beta  =  36.5304       b =   4.2564    beta  =  90.0000
  c =   6.7903    gamma =  36.5304       c =  18.9902    gamma = 120.0000

  Initial volumes (Angstroms**3):

  Primitive cell =          99.317044    Full cell =         297.951132

  Temperature of configuration =  0.000     K

  Pressure of configuration =         0.000 GPa

  Fractional coordinates of asymmetric unit :

   No.  Atomic       x           y          z         Charge      Occupancy
        Label      (Frac)      (Frac)     (Frac)        (e)         (Frac)
      1 Cs    c    0.000000    0.000000    0.256100      1.0000    1.000000
      2 O     c    0.000000    0.000000    0.000000     -2.0000    1.000000

  Distance calculation :

  Cutoff for distances  =      2.000000 Angstroms

  Asymmetric unit site  Full lattice sites    No.  Distance      No.  Distance
      No.   At.No.            At.No.                (Angs)             (Angs)

*  General input information                                                   *

  Species output for all configurations :

  Species    Type    Atomic    Atomic    Charge       Radii (Angs)     Library
                     Number     Mass       (e)     Cova   Ionic  VDW   Symbol
    Cs       Core       55     132.91     1.0000   1.670  0.000  2.490
    O        Core        8      16.00    -2.0000   0.730  0.000  1.360

  Lattice summation method               =    Ewald
  Accuracy factor for lattice sums       =    8.000

  Time limit = Infinity

*  Output for configuration   1                                                *

  Components of energy :

  Interatomic potentials     =           0.00000000 eV
  Monopole - monopole (real) =          -4.43483447 eV
  Monopole - monopole (recip)=         -18.65425400 eV
  Monopole - monopole (total)=         -23.08908847 eV
  Total lattice energy :
    Primitive unit cell      =         -23.08908847 eV
    Non-primitive unit cell  =         -69.26726542 eV
  Total lattice energy (in kJmol-1):
    Primitive unit cell      =           -2227.7441 kJ/(mole unit cells)
    Non-primitive unit cell  =           -6683.2323 kJ/(mole unit cells)

  Electrostatic potential at atomic positions :

 Site  Atomic      Potential                Derivatives (V/Angs)
 No.   Label          (V)                 x           y           z
     1 Cs    c     -9.004155          -0.000000    0.000000   -3.594340
     2 O     c     14.084934          -0.000000    0.000000    0.000000

  Total time to end of lattice properties =       0.0156 s

  Timing analysis for GULP :

  Task / Subroutine                                          Time (Seconds)

  Job Finished at 15:36.36  8th November   2011