  Job Started  at 14:14.39  2nd November   2011

  Number of CPUs =     1

  Total number of configurations input =   1

*  Input for Configuration =   1                                               *

  Formula = Cu4O2

  Number of irreducible atoms/shells =       2

  Total number atoms/shells =       6

  Dimensionality = 3               :  Bulk

  Symmetry :

  Crystal family                   :  Cubic
  Crystal class  (Groth - 1921)    :  Cubic Hexakisoctahedral

  Space group (centrosymmetric)    :  P N 3 M

  Patterson group                  :  P m -3 m

  Cartesian lattice vectors (Angstroms) :

        4.250000    0.000000    0.000000
        0.000000    4.250000    0.000000
        0.000000    0.000000    4.250000

  Cell parameters (Angstroms/Degrees):

  a =       4.2500    alpha =  90.0000
  b =       4.2500    beta  =  90.0000
  c =       4.2500    gamma =  90.0000

  Initial cell volume =          76.765625 Angs**3

  Temperature of configuration =  0.000     K

  Pressure of configuration =         0.000 GPa

  Fractional coordinates of asymmetric unit :

   No.  Atomic       x           y          z         Charge      Occupancy
        Label      (Frac)      (Frac)     (Frac)        (e)         (Frac)
      1 Cu    c    0.250000    0.250000    0.250000      1.0000    1.000000
      2 O     c    0.000000    0.000000    0.000000     -2.0000    1.000000

*  General input information                                                   *

  Species output for all configurations :

  Species    Type    Atomic    Atomic    Charge       Radii (Angs)     Library
                     Number     Mass       (e)     Cova   Ionic  VDW   Symbol
    Cu       Core       29      63.55     1.0000   1.520  0.000  1.540
    O        Core        8      16.00    -2.0000   0.730  0.000  1.360

  Lattice summation method               =    Ewald
  Accuracy factor for lattice sums       =    8.000

  Time limit = Infinity

*  Output for configuration   1                                                *

  Components of energy :

  Interatomic potentials     =           0.00000000 eV
  Monopole - monopole (real) =         -22.83148297 eV
  Monopole - monopole (recip)=         -46.69025949 eV
  Monopole - monopole (total)=         -69.52174247 eV
  Total lattice energy       =         -69.52174247 eV
  Total lattice energy       =           -6707.7854 kJ/(mole unit cells)

  Electrostatic potential at atomic positions :

 Site  Atomic      Potential                Derivatives (V/Angs)
 No.   Label          (V)                 x           y           z
     1 Cu    c    -12.817229           0.000000    0.000000    0.000000
     2 O     c     21.943643          -0.000000   -0.000000    0.000000

  Total time to end of lattice properties =       0.0000 s

  Timing analysis for GULP :

  Task / Subroutine                                          Time (Seconds)

  Job Finished at 14:14.39  2nd November   2011