  Job Started  at 13:32.52  2nd November   2011

  Number of CPUs =     1

  Total number of configurations input =   1

*  Input for Configuration =   1                                               *

  Formula = Fe4O6

  Number of irreducible atoms/shells =       2

  Total number atoms/shells =      10

  Dimensionality = 3               :  Bulk

  Symmetry :

  Crystal family                   :  Hexagonal
  Crystal class  (Groth - 1921)    :  Ditrigonal Scalenohedral

  Space group (centrosymmetric)    :  R -3 C

  Patterson group                  :  R -3 m

  Cartesian lattice vectors (Angstroms) :

        2.519000    1.454345    4.590667
       -2.519000    1.454345    4.590667
        0.000000   -2.908691    4.590667

  Primitive cell parameters :            Full cell parameters :

  a =   5.4346    alpha =  55.2281       a =   5.0380    alpha =  90.0000
  b =   5.4346    beta  =  55.2281       b =   5.0380    beta  =  90.0000
  c =   5.4346    gamma =  55.2281       c =  13.7720    gamma = 120.0000

  Initial volumes (Angstroms**3):

  Primitive cell =         100.907331    Full cell =         302.721992

  Temperature of configuration =  0.000     K

  Pressure of configuration =         0.000 GPa

  Fractional coordinates of asymmetric unit :

   No.  Atomic       x           y          z         Charge      Occupancy
        Label      (Frac)      (Frac)     (Frac)        (e)         (Frac)
      1 Fe    c    0.000000    0.000000    0.355300      3.0000    1.000000
      2 O     c    0.305900    0.000000    0.250000     -2.0000    1.000000

*  General input information                                                   *

  Species output for all configurations :

  Species    Type    Atomic    Atomic    Charge       Radii (Angs)     Library
                     Number     Mass       (e)     Cova   Ionic  VDW   Symbol
    Fe       Core       26      55.85     3.0000   1.340  0.000  2.000
    O        Core        8      16.00    -2.0000   0.730  0.000  1.360

  Lattice summation method               =    Ewald
  Accuracy factor for lattice sums       =    8.000

  Time limit = Infinity

*  Output for configuration   1                                                *

  Components of energy :

  Interatomic potentials     =           0.00000000 eV
  Monopole - monopole (real) =        -132.95381569 eV
  Monopole - monopole (recip)=        -224.21115440 eV
  Monopole - monopole (total)=        -357.16497009 eV
  Total lattice energy :
    Primitive unit cell      =        -357.16497009 eV
    Non-primitive unit cell  =       -1071.49491027 eV
  Total lattice energy (in kJmol-1):
    Primitive unit cell      =          -34460.9598 kJ/(mole unit cells)
    Non-primitive unit cell  =         -103382.8795 kJ/(mole unit cells)

  Electrostatic potential at atomic positions :

 Site  Atomic      Potential                Derivatives (V/Angs)
 No.   Label          (V)                 x           y           z
     1 Fe    c    -34.651299          -0.000000   -0.000000   -0.689423
     2 O     c     24.876196           0.197618    0.000000   -0.000000

  Total time to end of lattice properties =       0.0156 s

  Timing analysis for GULP :

  Task / Subroutine                                          Time (Seconds)
  Calculation of reciprocal space energy and derivatives          0.0156

  Job Finished at 13:32.52  2nd November   2011