  Job Started  at 15:06.01  2nd November   2011

  Number of CPUs =     1

  Total number of configurations input =   1

*  Input for Configuration =   1                                               *

  Formula = Ga4O6

  Number of irreducible atoms/shells =       5

  Total number atoms/shells =      10

  Dimensionality = 3               :  Bulk

  Symmetry :

  Crystal family                   :  Monoclinic
  Crystal class  (Groth - 1921)    :  Monoclinic Prismatic

  Space group (centrosymmetric)    :  C 2/M

  Patterson group                  :  C 2/m

  Cartesian lattice vectors (Angstroms) :

        6.116000    1.520500    0.000000
       -6.116000    1.520500    0.000000
       -1.373898    0.000000    5.635956

  Primitive cell parameters :            Full cell parameters :

  a =   6.3022    alpha =  76.7122       a =  12.2320    alpha =  90.0000
  b =   6.3022    beta  = 103.2878       b =   3.0410    beta  = 103.7000
  c =   5.8010    gamma = 152.0775       c =   5.8010    gamma =  90.0000

  Initial volumes (Angstroms**3):

  Primitive cell =         104.821779    Full cell =         209.643557

  Temperature of configuration =  0.000     K

  Pressure of configuration =         0.000 GPa

  Fractional coordinates of asymmetric unit :

   No.  Atomic       x           y          z         Charge      Occupancy
        Label      (Frac)      (Frac)     (Frac)        (e)         (Frac)
      1 Ga    c    0.090400    0.000000    0.205200      3.0000    1.000000
      2 Ga    c    0.341400    0.000000    0.314300      3.0000    1.000000
      3 O     c    0.167400    0.000000    0.101100     -2.0000    1.000000
      4 O     c    0.495700    0.000000    0.255300     -2.0000    1.000000
      5 O     c    0.827900    0.000000    0.436500     -2.0000    1.000000

  Distance calculation :

  Cutoff for distances  =      2.000000 Angstroms

  Asymmetric unit site  Full lattice sites    No.  Distance      No.  Distance
      No.   At.No.            At.No.                (Angs)             (Angs)
       1   Ga    core        O     core         1    1.2334        2    1.9743
       2   Ga    core        O     core         2    1.7021        1    1.9963
       3   O     core        Ga    core         1    1.2334
       4   O     core        Ga    core         2    1.9743        1    1.9963
       5   O     core        Ga    core         2    1.7021

*  General input information                                                   *

  Species output for all configurations :

  Species    Type    Atomic    Atomic    Charge       Radii (Angs)     Library
                     Number     Mass       (e)     Cova   Ionic  VDW   Symbol
    Ga       Core       31      69.72     3.0000   1.220  0.000  1.820
    O        Core        8      16.00    -2.0000   0.730  0.000  1.360

  Lattice summation method               =    Ewald
  Accuracy factor for lattice sums       =    8.000

  Time limit = Infinity

*  Output for configuration   1                                                *

  Components of energy :

  Interatomic potentials     =           0.00000000 eV
  Monopole - monopole (real) =        -161.74971317 eV
  Monopole - monopole (recip)=        -221.22977618 eV
  Monopole - monopole (total)=        -382.97948935 eV
  Total lattice energy :
    Primitive unit cell      =        -382.97948935 eV
    Non-primitive unit cell  =        -765.95897871 eV
  Total lattice energy (in kJmol-1):
    Primitive unit cell      =          -36951.6663 kJ/(mole unit cells)
    Non-primitive unit cell  =          -73903.3327 kJ/(mole unit cells)

  Electrostatic potential at atomic positions :

 Site  Atomic      Potential                Derivatives (V/Angs)
 No.   Label          (V)                 x           y           z
     1 Ga    c    -37.906324         -10.388794   -0.000000    3.915516
     2 Ga    c    -35.457872           0.739154    0.000000   -2.147966
     3 O     c     29.704949         -18.625717    0.000000   11.441348
     4 O     c     24.452732           2.125500   -0.000000   -1.433999
     5 O     c     27.285769           4.510517   -0.000000   -3.267095

  Total time to end of lattice properties =       0.0156 s

  Timing analysis for GULP :

  Task / Subroutine                                          Time (Seconds)
  Calculation of real space energy using symmetry                 0.0156

  Job Finished at 15:06.01  2nd November   2011