  Job Started  at 15:19.27  2nd November   2011

  Number of CPUs =     1

  Total number of configurations input =   1

*  Input for Configuration =   1                                               *

  Formula = Ge3O6

  Number of irreducible atoms/shells =       2

  Total number atoms/shells =       9

  Dimensionality = 3               :  Bulk

  Symmetry :

  Crystal family                   :  Hexagonal
  Crystal class  (Groth - 1921)    :  Trigonal Trapezohedral

  Space group (noncentrosymmetric) :  P 31 2 1

  Patterson group                  :  P -3 m 1

  Cartesian lattice vectors (Angstroms) :

        4.996300    0.000000    0.000000
       -2.498150    4.326923    0.000000
        0.000000    0.000000    5.654200

  Cell parameters (Angstroms/Degrees):

  a =       4.9963    alpha =  90.0000
  b =       4.9963    beta  =  90.0000
  c =       5.6542    gamma = 120.0000

  Initial cell volume =         122.235911 Angs**3

  Temperature of configuration =  0.000     K

  Pressure of configuration =         0.000 GPa

  Fractional coordinates of asymmetric unit :

   No.  Atomic       x           y          z         Charge      Occupancy
        Label      (Frac)      (Frac)     (Frac)        (e)         (Frac)
      1 Ge    c    0.451000    0.000000    0.333333      4.0000    1.000000
      2 O     c    0.385000    0.296000    0.094000     -2.0000    1.000000

  Distance calculation :

  Cutoff for distances  =      2.000000 Angstroms

  Asymmetric unit site  Full lattice sites    No.  Distance      No.  Distance
      No.   At.No.            At.No.                (Angs)             (Angs)
       1   Ge    core        O     core         2    1.2313
       2   O     core        Ge    core         1    1.2313
                             O     core         1    1.3127

*  General input information                                                   *

  Species output for all configurations :

  Species    Type    Atomic    Atomic    Charge       Radii (Angs)     Library
                     Number     Mass       (e)     Cova   Ionic  VDW   Symbol
    Ge       Core       32      72.61     4.0000   1.170  0.000  1.750
    O        Core        8      16.00    -2.0000   0.730  0.000  1.360

  Lattice summation method               =    Ewald
  Accuracy factor for lattice sums       =    8.000

  Time limit = Infinity

*  Output for configuration   1                                                *

  Components of energy :

  Interatomic potentials     =           0.00000000 eV
  Monopole - monopole (real) =        -232.23308110 eV
  Monopole - monopole (recip)=        -248.71453750 eV
  Monopole - monopole (total)=        -480.94761861 eV
  Total lattice energy       =        -480.94761861 eV
  Total lattice energy       =          -46404.0932 kJ/(mole unit cells)

  Electrostatic potential at atomic positions :

 Site  Atomic      Potential                Derivatives (V/Angs)
 No.   Label          (V)                 x           y           z
     1 Ge    c    -51.792327         -24.242091   -0.000000   -0.000000
     2 O     c     28.365609          14.908003   22.238512    0.512767

  Total time to end of lattice properties =       0.0000 s

  Timing analysis for GULP :

  Task / Subroutine                                          Time (Seconds)

  Job Finished at 15:19.27  2nd November   2011