  Job Started  at 15:56.16  8th November   2011

  Number of CPUs =     1

  Total number of configurations input =   1

*  Input for Configuration =   1                                               *

  Formula = Hf4O8

  Number of irreducible atoms/shells =       3

  Total number atoms/shells =      12

  Dimensionality = 3               :  Bulk

  Symmetry :

  Crystal family                   :  Monoclinic
  Crystal class  (Groth - 1921)    :  Monoclinic Prismatic

  Space group (centrosymmetric)    :  P 21/C

  Patterson group                  :  P 2/m

  Cartesian lattice vectors (Angstroms) :

        5.112650    0.000000    0.000000
        0.000000    5.172250    0.000000
        0.000000    0.000000    5.294850

  Cell parameters (Angstroms/Degrees):

  a =       5.1126    alpha =  90.0000
  b =       5.1723    beta  =  90.0000
  c =       5.2948    gamma =  90.0000

  Initial cell volume =         140.016505 Angs**3

  Temperature of configuration =  0.000     K

  Pressure of configuration =         0.000 GPa

  Fractional coordinates of asymmetric unit :

   No.  Atomic       x           y          z         Charge      Occupancy
        Label      (Frac)      (Frac)     (Frac)        (e)         (Frac)
      1 Hf    c    0.275900    0.041200    0.207800      4.0000    1.000000
      2 O     c    0.073800    0.346800    0.332800     -2.0000    1.000000
      3 O     c    0.446800    0.748800    0.488800     -2.0000    1.000000

  Distance calculation :

  Cutoff for distances  =      2.000000 Angstroms

  Asymmetric unit site  Full lattice sites    No.  Distance      No.  Distance
      No.   At.No.            At.No.                (Angs)             (Angs)

*  General input information                                                   *

  Species output for all configurations :

  Species    Type    Atomic    Atomic    Charge       Radii (Angs)     Library
                     Number     Mass       (e)     Cova   Ionic  VDW   Symbol
    Hf       Core       72     178.49     4.0000   1.570  0.000  2.340
    O        Core        8      16.00    -2.0000   0.730  0.000  1.360

  Lattice summation method               =    Ewald
  Accuracy factor for lattice sums       =    8.000

  Time limit = Infinity

*  Output for configuration   1                                                *

  Components of energy :

  Interatomic potentials     =           0.00000000 eV
  Monopole - monopole (real) =        -200.44915238 eV
  Monopole - monopole (recip)=        -326.02560658 eV
  Monopole - monopole (total)=        -526.47475896 eV
  Total lattice energy       =        -526.47475896 eV
  Total lattice energy       =          -50796.7663 kJ/(mole unit cells)

  Electrostatic potential at atomic positions :

 Site  Atomic      Potential                Derivatives (V/Angs)
 No.   Label          (V)                 x           y           z
     1 Hf    c    -42.241021           1.886809   -0.102691    1.258662
     2 O     c     22.419654           0.746695   -2.204807   -0.498007
     3 O     c     24.716993           2.675747   -3.536375   -0.484882

  Total time to end of lattice properties =       0.0000 s

  Timing analysis for GULP :

  Task / Subroutine                                          Time (Seconds)

  Job Finished at 15:56.16  8th November   2011