  Job Started  at 13:26.53  9th November   2011

  Number of CPUs =     1

  Total number of configurations input =   1

*  Input for Configuration =   1                                               *

  Formula = Hg4O4

  Number of irreducible atoms/shells =       2

  Total number atoms/shells =       8

  Dimensionality = 3               :  Bulk

  Symmetry :

  Crystal family                   :  Orthorhombic
  Crystal class  (Groth - 1921)    :  Orthorhombic Bipyramidal

  Space group (centrosymmetric)    :  P N M A

  Patterson group                  :  P m m m

  Cartesian lattice vectors (Angstroms) :

        6.612900    0.000000    0.000000
        0.000000    5.520800    0.000000
        0.000000    0.000000    3.521900

  Cell parameters (Angstroms/Degrees):

  a =       6.6129    alpha =  90.0000
  b =       5.5208    beta  =  90.0000
  c =       3.5219    gamma =  90.0000

  Initial cell volume =         128.579280 Angs**3

  Temperature of configuration =  0.000     K

  Pressure of configuration =         0.000 GPa

  Fractional coordinates of asymmetric unit :

   No.  Atomic       x           y          z         Charge      Occupancy
        Label      (Frac)      (Frac)     (Frac)        (e)         (Frac)
      1 Hg    c    0.113600    0.250000    0.245600      2.0000    1.000000
      2 O     c    0.359200    0.250000    0.595500     -2.0000    1.000000

  Distance calculation :

  Cutoff for distances  =      2.000000 Angstroms

  Asymmetric unit site  Full lattice sites    No.  Distance      No.  Distance
      No.   At.No.            At.No.                (Angs)             (Angs)

*  General input information                                                   *

  Species output for all configurations :

  Species    Type    Atomic    Atomic    Charge       Radii (Angs)     Library
                     Number     Mass       (e)     Cova   Ionic  VDW   Symbol
    Hg       Core       80     200.59     2.0000   1.700  0.000  1.900
    O        Core        8      16.00    -2.0000   0.730  0.000  1.360

  Lattice summation method               =    Ewald
  Accuracy factor for lattice sums       =    8.000

  Time limit = Infinity

*  Output for configuration   1                                                *

  Components of energy :

  Interatomic potentials     =           0.00000000 eV
  Monopole - monopole (real) =         -58.78926107 eV
  Monopole - monopole (recip)=        -108.22148330 eV
  Monopole - monopole (total)=        -167.01074438 eV
  Total lattice energy       =        -167.01074438 eV
  Total lattice energy       =          -16113.9838 kJ/(mole unit cells)

  Electrostatic potential at atomic positions :

 Site  Atomic      Potential                Derivatives (V/Angs)
 No.   Label          (V)                 x           y           z
     1 Hg    c    -20.876468          -0.345279   -0.000000    0.226613
     2 O     c     20.876218          -0.045419    0.000000   -2.842942

  Total time to end of lattice properties =       0.0156 s

  Timing analysis for GULP :

  Task / Subroutine                                          Time (Seconds)
  Calculation of reciprocal space energy and derivatives          0.0156

  Job Finished at 13:26.53  9th November   2011