  Job Started  at 12:37.05  1st November   2011

  Number of CPUs =     1

  Total number of configurations input =   1

*  Input for Configuration =   1                                               *

  Formula = K2O

  Number of irreducible atoms/shells =       2

  Total number atoms/shells =       3

  Dimensionality = 3               :  Bulk

  Symmetry :

  Crystal family                   :  Cubic
  Crystal class  (Groth - 1921)    :  Cubic Hexakisoctahedral

  Space group (centrosymmetric)    :  F M 3 M

  Patterson group                  :  F m -3 m

  Cartesian lattice vectors (Angstroms) :

        0.000000    3.045500    3.045500
        3.045500    0.000000    3.045500
        3.045500    3.045500    0.000000

  Primitive cell parameters :            Full cell parameters :

  a =   4.3070    alpha =  60.0000       a =   6.0910    alpha =  90.0000
  b =   4.3070    beta  =  60.0000       b =   6.0910    beta  =  90.0000
  c =   4.3070    gamma =  60.0000       c =   6.0910    gamma =  90.0000

  Initial volumes (Angstroms**3):

  Primitive cell =          56.494453    Full cell =         225.977812

  Temperature of configuration =  0.000     K

  Pressure of configuration =         0.000 GPa

  Fractional coordinates of asymmetric unit :

   No.  Atomic       x           y          z         Charge      Occupancy
        Label      (Frac)      (Frac)     (Frac)        (e)         (Frac)
      1 K     c    0.250000    0.250000    0.250000      1.0000    1.000000
      2 O     c    0.000000    0.000000    0.000000     -2.0000    1.000000

*  General input information                                                   *

  Species output for all configurations :

  Species    Type    Atomic    Atomic    Charge       Radii (Angs)     Library
                     Number     Mass       (e)     Cova   Ionic  VDW   Symbol
    K        Core       19      39.10     1.0000   1.330  0.000  2.800
    O        Core        8      16.00    -2.0000   0.730  0.000  1.360

  Lattice summation method               =    Ewald
  Accuracy factor for lattice sums       =    8.000

  Time limit = Infinity

*  Output for configuration   1                                                *

  Components of energy :

  Interatomic potentials     =           0.00000000 eV
  Monopole - monopole (real) =          -4.11567550 eV
  Monopole - monopole (recip)=         -23.39440041 eV
  Monopole - monopole (total)=         -27.51007591 eV
  Total lattice energy :
    Primitive unit cell      =         -27.51007591 eV
    Non-primitive unit cell  =        -110.04030362 eV
  Total lattice energy (in kJmol-1):
    Primitive unit cell      =           -2654.3018 kJ/(mole unit cells)
    Non-primitive unit cell  =          -10617.2072 kJ/(mole unit cells)

  Electrostatic potential at atomic positions :

 Site  Atomic      Potential                Derivatives (V/Angs)
 No.   Label          (V)                 x           y           z
     1 K     c     -9.623613           0.000000    0.000000    0.000000
     2 O     c     17.886463          -0.000000   -0.000000   -0.000000

  Total time to end of lattice properties =       0.0000 s

  Timing analysis for GULP :

  Task / Subroutine                                          Time (Seconds)

  Job Finished at 12:37.05  1st November   2011