  Job Started  at 11:23.20  2nd November   2011

  Number of CPUs =     1

  Total number of configurations input =   1

*  Input for Configuration =   1                                               *

  Formula = Mn2O4

  Number of irreducible atoms/shells =       2

  Total number atoms/shells =       6

  Dimensionality = 3               :  Bulk

  Symmetry :

  Crystal family                   :  Tetragonal
  Crystal class  (Groth - 1921)    :  Ditetragonal Dipyramidal

  Space group (centrosymmetric)    :  P 42/M N M

  Patterson group                  :  P 4/m m m

  Cartesian lattice vectors (Angstroms) :

        4.398300    0.000000    0.000000
        0.000000    4.398300    0.000000
        0.000000    0.000000    2.873000

  Cell parameters (Angstroms/Degrees):

  a =       4.3983    alpha =  90.0000
  b =       4.3983    beta  =  90.0000
  c =       2.8730    gamma =  90.0000

  Initial cell volume =          55.578308 Angs**3

  Temperature of configuration =  0.000     K

  Pressure of configuration =         0.000 GPa

  Fractional coordinates of asymmetric unit :

   No.  Atomic       x           y          z         Charge      Occupancy
        Label      (Frac)      (Frac)     (Frac)        (e)         (Frac)
      1 Mn    c    0.000000    0.000000    0.000000      4.0000    1.000000
      2 O     c    0.305150    0.305150    0.000000     -2.0000    1.000000

*  General input information                                                   *

  Species output for all configurations :

  Species    Type    Atomic    Atomic    Charge       Radii (Angs)     Library
                     Number     Mass       (e)     Cova   Ionic  VDW   Symbol
    Mn       Core       25      54.94     4.0000   1.350  0.000  2.010
    O        Core        8      16.00    -2.0000   0.730  0.000  1.360

  Lattice summation method               =    Ewald
  Accuracy factor for lattice sums       =    8.000

  Time limit = Infinity

*  Output for configuration   1                                                *

  Components of energy :

  Interatomic potentials     =           0.00000000 eV
  Monopole - monopole (real) =         -86.43069908 eV
  Monopole - monopole (recip)=        -207.08833667 eV
  Monopole - monopole (total)=        -293.51903575 eV
  Total lattice energy       =        -293.51903575 eV
  Total lattice energy       =          -28320.1001 kJ/(mole unit cells)

  Electrostatic potential at atomic positions :

 Site  Atomic      Potential                Derivatives (V/Angs)
 No.   Label          (V)                 x           y           z
     1 Mn    c    -46.527618          -0.000000   -0.000000   -0.000000
     2 O     c     26.852141           1.853947    1.853947    0.000000

  Total time to end of lattice properties =       0.0156 s

  Timing analysis for GULP :

  Task / Subroutine                                          Time (Seconds)

  Job Finished at 11:23.20  2nd November   2011