  Job Started  at 12:13.07  8th November   2011

  Number of CPUs =     1

  Total number of configurations input =   1

*  Input for Configuration =   1                                               *

  Formula = Mo4O8

  Number of irreducible atoms/shells =       3

  Total number atoms/shells =      12

  Dimensionality = 3               :  Bulk

  Symmetry :

  Crystal family                   :  Monoclinic
  Crystal class  (Groth - 1921)    :  Monoclinic Prismatic

  Space group (centrosymmetric)    :  P 21/C

  Patterson group                  :  P 2/m

  Cartesian lattice vectors (Angstroms) :

        5.610980    0.000000    0.000000
        0.000000    4.886260    0.000000
       -2.894801    0.000000    4.827104

  Cell parameters (Angstroms/Degrees):

  a =       5.6110    alpha =  90.0000
  b =       4.8863    beta  = 120.9510
  c =       5.6286    gamma =  90.0000

  Initial cell volume =         132.343285 Angs**3

  Temperature of configuration =  0.000     K

  Pressure of configuration =         0.000 GPa

  Fractional coordinates of asymmetric unit :

   No.  Atomic       x           y          z         Charge      Occupancy
        Label      (Frac)      (Frac)     (Frac)        (e)         (Frac)
      1 Mo    c    0.231645    0.991596    0.016445      4.0000    1.000000
      2 O     c    0.112360    0.217160    0.233550     -2.0000    1.000000
      3 O     c    0.390860    0.696960    0.298760     -2.0000    1.000000

  Distance calculation :

  Cutoff for distances  =      2.000000 Angstroms

  Asymmetric unit site  Full lattice sites    No.  Distance      No.  Distance
      No.   At.No.            At.No.                (Angs)             (Angs)
       1   Mo    core        O     core         1    1.9780        1    1.9838
                                                1    1.9881        1    1.9993
       2   O     core        Mo    core         1    1.9780        1    1.9881
                                                1    1.9993
       3   O     core        Mo    core         1    1.9838

*  General input information                                                   *

  Species output for all configurations :

  Species    Type    Atomic    Atomic    Charge       Radii (Angs)     Library
                     Number     Mass       (e)     Cova   Ionic  VDW   Symbol
    Mo       Core       42      95.94     4.0000   1.470  0.000  2.190
    O        Core        8      16.00    -2.0000   0.730  0.000  1.360

  Lattice summation method               =    Ewald
  Accuracy factor for lattice sums       =    8.000

  Time limit = Infinity

*  Output for configuration   1                                                *

  Components of energy :

  Interatomic potentials     =           0.00000000 eV
  Monopole - monopole (real) =        -208.09644933 eV
  Monopole - monopole (recip)=        -331.21496961 eV
  Monopole - monopole (total)=        -539.31141893 eV
  Total lattice energy       =        -539.31141893 eV
  Total lattice energy       =          -52035.3078 kJ/(mole unit cells)

  Electrostatic potential at atomic positions :

 Site  Atomic      Potential                Derivatives (V/Angs)
 No.   Label          (V)                 x           y           z
     1 Mo    c    -42.397188          -3.523499   -0.127090   -0.004010
     2 O     c     26.147157          -1.043319   -2.894696   -3.761958
     3 O     c     23.886321          -0.731757   -0.014023    0.344129

  Total time to end of lattice properties =       0.0000 s

  Timing analysis for GULP :

  Task / Subroutine                                          Time (Seconds)

  Job Finished at 12:13.07  8th November   2011