  Job Started  at 10:39.02  9th November   2011

  Number of CPUs =     1

  Total number of configurations input =   1

*  Input for Configuration =   1                                               *

  Formula = Nb4O10

  Number of irreducible atoms/shells =       4

  Total number atoms/shells =      14

  Dimensionality = 3               :  Bulk

  Symmetry :

  Crystal family                   :  Monoclinic
  Crystal class  (Groth - 1921)    :  Monoclinic Prismatic

  Space group (centrosymmetric)    :  C 2/C

  Patterson group                  :  C 2/m

  Cartesian lattice vectors (Angstroms) :

        6.370100    2.441500    0.000000
       -6.370100    2.441500    0.000000
       -1.441142    0.000000    5.370914

  Primitive cell parameters :            Full cell parameters :

  a =   6.8220    alpha =  75.9959       a =  12.7402    alpha =  90.0000
  b =   6.8220    beta  = 104.0041       b =   4.8830    beta  = 105.0200
  c =   5.5609    gamma = 138.0588       c =   5.5609    gamma =  90.0000

  Initial volumes (Angstroms**3):

  Primitive cell =         167.063351    Full cell =         334.126703

  Temperature of configuration =  0.000     K

  Pressure of configuration =         0.000 GPa

  Fractional coordinates of asymmetric unit :

   No.  Atomic       x           y          z         Charge      Occupancy
        Label      (Frac)      (Frac)     (Frac)        (e)         (Frac)
      1 Nb    c    0.359800    0.258700    0.251200      5.0000    1.000000
      2 O     c    0.500000    0.396500    0.250000     -2.0000    1.000000
      3 O     c    0.108800    0.442200    0.470900     -2.0000    1.000000
      4 O     c    0.205500    0.072300    0.125600     -2.0000    1.000000

  Distance calculation :

  Cutoff for distances  =      2.000000 Angstroms

  Asymmetric unit site  Full lattice sites    No.  Distance      No.  Distance
      No.   At.No.            At.No.                (Angs)             (Angs)
       1   Nb    core        O     core         1    1.7861        1    1.9103
                                                1    1.9498
       2   O     core        Nb    core         2    1.9103
       3   O     core        Nb    core         1    1.7861
       4   O     core        Nb    core         1    1.9498

*  General input information                                                   *

  Species output for all configurations :

  Species    Type    Atomic    Atomic    Charge       Radii (Angs)     Library
                     Number     Mass       (e)     Cova   Ionic  VDW   Symbol
    Nb       Core       41      92.91     5.0000   1.480  0.000  2.210
    O        Core        8      16.00    -2.0000   0.730  0.000  1.360

  Lattice summation method               =    Ewald
  Accuracy factor for lattice sums       =    8.000

  Time limit = Infinity

*  Output for configuration   1                                                *

  Components of energy :

  Interatomic potentials     =           0.00000000 eV
  Monopole - monopole (real) =        -326.78207015 eV
  Monopole - monopole (recip)=        -453.06258295 eV
  Monopole - monopole (total)=        -779.84465310 eV
  Total lattice energy :
    Primitive unit cell      =        -779.84465310 eV
    Non-primitive unit cell  =       -1559.68930621 eV
  Total lattice energy (in kJmol-1):
    Primitive unit cell      =          -75243.0880 kJ/(mole unit cells)
    Non-primitive unit cell  =         -150486.1760 kJ/(mole unit cells)

  Electrostatic potential at atomic positions :

 Site  Atomic      Potential                Derivatives (V/Angs)
 No.   Label          (V)                 x           y           z
     1 Nb    c    -52.234466          -2.096899    1.446396   -2.188438
     2 O     c     24.585801           0.000000   -7.320161    0.000000
     3 O     c     24.433033           4.413507   -2.016152    7.739684
     4 O     c     27.649065           0.489115   -2.719114    0.276594

  Total time to end of lattice properties =       0.0156 s

  Timing analysis for GULP :

  Task / Subroutine                                          Time (Seconds)

  Job Finished at 10:39.02  9th November   2011