  Job Started  at 13:53.58  2nd November   2011

  Number of CPUs =     1

  Total number of configurations input =   1

*  Input for Configuration =   1                                               *

  Formula = NiO

  Number of irreducible atoms/shells =       2

  Total number atoms/shells =       2

  Dimensionality = 3               :  Bulk

  Symmetry :

  Crystal family                   :  Hexagonal
  Crystal class  (Groth - 1921)    :  Ditrigonal Scalenohedral

  Space group (centrosymmetric)    :  R -3 M

  Patterson group                  :  R -3 m

  Cartesian lattice vectors (Angstroms) :

        1.476000    0.852169    2.405967
       -1.476000    0.852169    2.405967
        0.000000   -1.704338    2.405967

  Primitive cell parameters :            Full cell parameters :

  a =   2.9485    alpha =  60.0793       a =   2.9520    alpha =  90.0000
  b =   2.9485    beta  =  60.0793       b =   2.9520    beta  =  90.0000
  c =   2.9485    gamma =  60.0793       c =   7.2179    gamma = 120.0000

  Initial volumes (Angstroms**3):

  Primitive cell =          18.157370    Full cell =          54.472110

  Temperature of configuration =  0.000     K

  Pressure of configuration =         0.000 GPa

  Fractional coordinates of asymmetric unit :

   No.  Atomic       x           y          z         Charge      Occupancy
        Label      (Frac)      (Frac)     (Frac)        (e)         (Frac)
      1 Ni    c    0.000000    0.000000    0.000000      2.0000    1.000000
      2 O     c    0.000000    0.000000    0.500000     -2.0000    1.000000

*  General input information                                                   *

  Species output for all configurations :

  Species    Type    Atomic    Atomic    Charge       Radii (Angs)     Library
                     Number     Mass       (e)     Cova   Ionic  VDW   Symbol
    Ni       Core       28      58.69     2.0000   1.500  0.000  1.810
    O        Core        8      16.00    -2.0000   0.730  0.000  1.360

  Lattice summation method               =    Ewald
  Accuracy factor for lattice sums       =    8.000

  Time limit = Infinity

*  Output for configuration   1                                                *

  Components of energy :

  Interatomic potentials     =           0.00000000 eV
  Monopole - monopole (real) =          -5.16455208 eV
  Monopole - monopole (recip)=         -43.08649779 eV
  Monopole - monopole (total)=         -48.25104986 eV
  Total lattice energy :
    Primitive unit cell      =         -48.25104986 eV
    Non-primitive unit cell  =        -144.75314959 eV
  Total lattice energy (in kJmol-1):
    Primitive unit cell      =           -4655.4887 kJ/(mole unit cells)
    Non-primitive unit cell  =          -13966.4662 kJ/(mole unit cells)

  Electrostatic potential at atomic positions :

 Site  Atomic      Potential                Derivatives (V/Angs)
 No.   Label          (V)                 x           y           z
     1 Ni    c    -24.125525           0.000000    0.000000   -0.000000
     2 O     c     24.125525          -0.000000    0.000000    0.000000

  Total time to end of lattice properties =       0.0000 s

  Timing analysis for GULP :

  Task / Subroutine                                          Time (Seconds)

  Job Finished at 13:53.58  2nd November   2011