  Job Started  at 14:04.41  9th November   2011

  Number of CPUs =     1

  Total number of configurations input =   1

*  Input for Configuration =   1                                               *

  Formula = Pb2O4

  Number of irreducible atoms/shells =       2

  Total number atoms/shells =       6

  Dimensionality = 3               :  Bulk

  Symmetry :

  Crystal family                   :  Tetragonal
  Crystal class  (Groth - 1921)    :  Ditetragonal Dipyramidal

  Space group (centrosymmetric)    :  P 42/M N M

  Patterson group                  :  P 4/m m m

  Cartesian lattice vectors (Angstroms) :

        4.961200    0.000000    0.000000
        0.000000    4.961200    0.000000
        0.000000    0.000000    3.385200

  Cell parameters (Angstroms/Degrees):

  a =       4.9612    alpha =  90.0000
  b =       4.9612    beta  =  90.0000
  c =       3.3852    gamma =  90.0000

  Initial cell volume =          83.321639 Angs**3

  Temperature of configuration =  0.000     K

  Pressure of configuration =         0.000 GPa

  Fractional coordinates of asymmetric unit :

   No.  Atomic       x           y          z         Charge      Occupancy
        Label      (Frac)      (Frac)     (Frac)        (e)         (Frac)
      1 Pb    c    0.000000    0.000000    0.000000      4.0000    1.000000
      2 O     c    0.305000    0.305000    0.000000     -2.0000    1.000000

  Distance calculation :

  Cutoff for distances  =      2.000000 Angstroms

  Asymmetric unit site  Full lattice sites    No.  Distance      No.  Distance
      No.   At.No.            At.No.                (Angs)             (Angs)

*  General input information                                                   *

  Species output for all configurations :

  Species    Type    Atomic    Atomic    Charge       Radii (Angs)     Library
                     Number     Mass       (e)     Cova   Ionic  VDW   Symbol
    Pb       Core       82     207.20     4.0000   1.540  0.000  2.300
    O        Core        8      16.00    -2.0000   0.730  0.000  1.360

  Lattice summation method               =    Ewald
  Accuracy factor for lattice sums       =    8.000

  Time limit = Infinity

*  Output for configuration   1                                                *

  Components of energy :

  Interatomic potentials     =           0.00000000 eV
  Monopole - monopole (real) =         -75.04634461 eV
  Monopole - monopole (recip)=        -181.09360282 eV
  Monopole - monopole (total)=        -256.13994743 eV
  Total lattice energy       =        -256.13994743 eV
  Total lattice energy       =          -24713.5895 kJ/(mole unit cells)

  Electrostatic potential at atomic positions :

 Site  Atomic      Potential                Derivatives (V/Angs)
 No.   Label          (V)                 x           y           z
     1 Pb    c    -40.710615           0.000000    0.000000   -0.000000
     2 O     c     23.324371           0.703253    0.703253    0.000000

  Total time to end of lattice properties =       0.0000 s

  Timing analysis for GULP :

  Task / Subroutine                                          Time (Seconds)

  Job Finished at 14:04.41  9th November   2011