  Job Started  at 13:48.03  8th November   2011

  Number of CPUs =     1

  Total number of configurations input =   1

*  Input for Configuration =   1                                               *

  Formula = Pd2O2

  Number of irreducible atoms/shells =       2

  Total number atoms/shells =       4

  Dimensionality = 3               :  Bulk

  Symmetry :

  Crystal family                   :  Tetragonal
  Crystal class  (Groth - 1921)    :  Ditetragonal Dipyramidal

  Space group (centrosymmetric)    :  P 42/M M C

  Patterson group                  :  P 4/m m m

  Cartesian lattice vectors (Angstroms) :

        3.031000    0.000000    0.000000
        0.000000    3.031000    0.000000
        0.000000    0.000000    5.332000

  Cell parameters (Angstroms/Degrees):

  a =       3.0310    alpha =  90.0000
  b =       3.0310    beta  =  90.0000
  c =       5.3320    gamma =  90.0000

  Initial cell volume =          48.984876 Angs**3

  Temperature of configuration =  0.000     K

  Pressure of configuration =         0.000 GPa

  Fractional coordinates of asymmetric unit :

   No.  Atomic       x           y          z         Charge      Occupancy
        Label      (Frac)      (Frac)     (Frac)        (e)         (Frac)
      1 Pd    c    0.500000    0.000000    0.000000      2.0000    1.000000
      2 O     c    0.000000    0.000000    0.250000     -2.0000    1.000000

  Distance calculation :

  Cutoff for distances  =      2.000000 Angstroms

  Asymmetric unit site  Full lattice sites    No.  Distance      No.  Distance
      No.   At.No.            At.No.                (Angs)             (Angs)

*  General input information                                                   *

  Species output for all configurations :

  Species    Type    Atomic    Atomic    Charge       Radii (Angs)     Library
                     Number     Mass       (e)     Cova   Ionic  VDW   Symbol
    Pd       Core       46     106.42     2.0000   1.500  0.000  2.240
    O        Core        8      16.00    -2.0000   0.730  0.000  1.360

  Lattice summation method               =    Ewald
  Accuracy factor for lattice sums       =    8.000

  Time limit = Infinity

*  Output for configuration   1                                                *

  Components of energy :

  Interatomic potentials     =           0.00000000 eV
  Monopole - monopole (real) =         -22.74905738 eV
  Monopole - monopole (recip)=         -69.18050464 eV
  Monopole - monopole (total)=         -91.92956202 eV
  Total lattice energy       =         -91.92956202 eV
  Total lattice energy       =           -8869.7975 kJ/(mole unit cells)

  Electrostatic potential at atomic positions :

 Site  Atomic      Potential                Derivatives (V/Angs)
 No.   Label          (V)                 x           y           z
     1 Pd    c    -23.285199          -0.000000    0.000000    0.000000
     2 O     c     22.679582          -0.000000   -0.000000   -0.000000

  Total time to end of lattice properties =       0.0156 s

  Timing analysis for GULP :

  Task / Subroutine                                          Time (Seconds)
  Symmetry generation of equivalent positions                     0.0156

  Job Finished at 13:48.03  8th November   2011