  Job Started  at 14:35.44  9th November   2011

  Number of CPUs =     1

  Total number of configurations input =   1

*  Input for Configuration =   1                                               *

  Formula = PoO2

  Number of irreducible atoms/shells =       2

  Total number atoms/shells =       3

  Dimensionality = 3               :  Bulk

  Symmetry :

  Crystal family                   :  Cubic
  Crystal class  (Groth - 1921)    :  Cubic Hexakisoctahedral

  Space group (centrosymmetric)    :  F M 3 M

  Patterson group                  :  F m -3 m

  Cartesian lattice vectors (Angstroms) :

        0.000000    2.818750    2.818750
        2.818750    0.000000    2.818750
        2.818750    2.818750    0.000000

  Primitive cell parameters :            Full cell parameters :

  a =   3.9863    alpha =  60.0000       a =   5.6375    alpha =  90.0000
  b =   3.9863    beta  =  60.0000       b =   5.6375    beta  =  90.0000
  c =   3.9863    gamma =  60.0000       c =   5.6375    gamma =  90.0000

  Initial volumes (Angstroms**3):

  Primitive cell =          44.791919    Full cell =         179.167678

  Temperature of configuration =  0.000     K

  Pressure of configuration =         0.000 GPa

  Fractional coordinates of asymmetric unit :

   No.  Atomic       x           y          z         Charge      Occupancy
        Label      (Frac)      (Frac)     (Frac)        (e)         (Frac)
      1 Po    c    0.000000    0.000000    0.000000      4.0000    1.000000
      2 O     c    0.250000    0.250000    0.250000     -2.0000    1.000000

  Distance calculation :

  Cutoff for distances  =      2.000000 Angstroms

  Asymmetric unit site  Full lattice sites    No.  Distance      No.  Distance
      No.   At.No.            At.No.                (Angs)             (Angs)

*  General input information                                                   *

  Species output for all configurations :

  Species    Type    Atomic    Atomic    Charge       Radii (Angs)     Library
                     Number     Mass       (e)     Cova   Ionic  VDW   Symbol
    Po       Core       84     209.00     4.0000   1.680  0.000  2.510
    O        Core        8      16.00    -2.0000   0.730  0.000  1.360

  Lattice summation method               =    Ewald
  Accuracy factor for lattice sums       =    8.000

  Time limit = Infinity

*  Output for configuration   1                                                *

  Components of energy :

  Interatomic potentials     =           0.00000000 eV
  Monopole - monopole (real) =         -17.78701868 eV
  Monopole - monopole (recip)=        -101.10530759 eV
  Monopole - monopole (total)=        -118.89232627 eV
  Total lattice energy :
    Primitive unit cell      =        -118.89232627 eV
    Non-primitive unit cell  =        -475.56930509 eV
  Total lattice energy (in kJmol-1):
    Primitive unit cell      =          -11471.2920 kJ/(mole unit cells)
    Non-primitive unit cell  =          -45885.1682 kJ/(mole unit cells)

  Electrostatic potential at atomic positions :

 Site  Atomic      Potential                Derivatives (V/Angs)
 No.   Label          (V)                 x           y           z
     1 Po    c    -38.650623           0.000000    0.000000    0.000000
     2 O     c     20.795540           0.000000    0.000000    0.000000

  Total time to end of lattice properties =       0.0156 s

  Timing analysis for GULP :

  Task / Subroutine                                          Time (Seconds)

  Job Finished at 14:35.44  9th November   2011