  Job Started  at 13:20.39  9th November   2011

  Number of CPUs =     1

  Total number of configurations input =   1

*  Input for Configuration =   1                                               *

  Formula = Pt2O4

  Number of irreducible atoms/shells =       2

  Total number atoms/shells =       6

  Dimensionality = 3               :  Bulk

  Symmetry :

  Crystal family                   :  Orthorhombic
  Crystal class  (Groth - 1921)    :  Orthorhombic Bipyramidal

  Space group (centrosymmetric)    :  P N N M

  Patterson group                  :  P m m m

  Cartesian lattice vectors (Angstroms) :

        4.488300    0.000000    0.000000
        0.000000    4.533300    0.000000
        0.000000    0.000000    3.138200

  Cell parameters (Angstroms/Degrees):

  a =       4.4883    alpha =  90.0000
  b =       4.5333    beta  =  90.0000
  c =       3.1382    gamma =  90.0000

  Initial cell volume =          63.852360 Angs**3

  Temperature of configuration =  0.000     K

  Pressure of configuration =         0.000 GPa

  Fractional coordinates of asymmetric unit :

   No.  Atomic       x           y          z         Charge      Occupancy
        Label      (Frac)      (Frac)     (Frac)        (e)         (Frac)
      1 Pt    c    0.000000    0.000000    0.000000      4.0000    1.000000
      2 O     c    0.281500    0.348500    0.000000     -2.0000    1.000000

  Distance calculation :

  Cutoff for distances  =      2.000000 Angstroms

  Asymmetric unit site  Full lattice sites    No.  Distance      No.  Distance
      No.   At.No.            At.No.                (Angs)             (Angs)
       1   Pt    core        O     core         4    1.9737
       2   O     core        Pt    core         2    1.9737

*  General input information                                                   *

  Species output for all configurations :

  Species    Type    Atomic    Atomic    Charge       Radii (Angs)     Library
                     Number     Mass       (e)     Cova   Ionic  VDW   Symbol
    Pt       Core       78     195.08     4.0000   1.500  0.000  1.970
    O        Core        8      16.00    -2.0000   0.730  0.000  1.360

  Lattice summation method               =    Ewald
  Accuracy factor for lattice sums       =    8.000

  Time limit = Infinity

*  Output for configuration   1                                                *

  Components of energy :

  Interatomic potentials     =           0.00000000 eV
  Monopole - monopole (real) =         -80.56813539 eV
  Monopole - monopole (recip)=        -197.88736207 eV
  Monopole - monopole (total)=        -278.45549745 eV
  Total lattice energy       =        -278.45549745 eV
  Total lattice energy       =          -26866.6989 kJ/(mole unit cells)

  Electrostatic potential at atomic positions :

 Site  Atomic      Potential                Derivatives (V/Angs)
 No.   Label          (V)                 x           y           z
     1 Pt    c    -44.385243          -0.000000   -0.000000   -0.000000
     2 O     c     25.228632           2.846407   -0.232110    0.000000

  Total time to end of lattice properties =       0.0000 s

  Timing analysis for GULP :

  Task / Subroutine                                          Time (Seconds)

  Job Finished at 13:20.39  9th November   2011