  Job Started  at 11:37.04  9th November   2011

  Number of CPUs =     1

  Total number of configurations input =   1

*  Input for Configuration =   1                                               *

  Formula = Re16O56

  Number of irreducible atoms/shells =      18

  Total number atoms/shells =      72

  Dimensionality = 3               :  Bulk

  Symmetry :

  Crystal family                   :  Orthorhombic
  Crystal class  (Groth - 1921)    :  Orthorhombic Disphenoidal

  Space group (noncentrosymmetric) :  P 21 21 21

  Patterson group                  :  P m m m

  Cartesian lattice vectors (Angstroms) :

       12.508800    0.000000    0.000000
        0.000000   15.196100    0.000000
        0.000000    0.000000    5.448500

  Cell parameters (Angstroms/Degrees):

  a =      12.5088    alpha =  90.0000
  b =      15.1961    beta  =  90.0000
  c =       5.4485    gamma =  90.0000

  Initial cell volume =        1035.677990 Angs**3

  Temperature of configuration =  0.000     K

  Pressure of configuration =         0.000 GPa

  Fractional coordinates of asymmetric unit :

   No.  Atomic       x           y          z         Charge      Occupancy
        Label      (Frac)      (Frac)     (Frac)        (e)         (Frac)
      1 Re    c    0.474900    0.369700    0.565600      7.0000    1.000000
      2 Re    c    0.267400    0.363700    0.062900      7.0000    1.000000
      3 Re    c    0.526200    0.142700    0.325500      7.0000    1.000000
      4 Re    c    0.219700    0.136500    0.808000      7.0000    1.000000
      5 O     c    0.375300    0.337200    0.255500     -2.0000    1.000000
      6 O     c    0.583700    0.368700    0.283400     -2.0000    1.000000
      7 O     c    0.500600    0.234900    0.513400     -2.0000    1.000000
      8 O     c    0.580900    0.382200    0.766500     -2.0000    1.000000
      9 O     c    0.448200    0.474700    0.519500     -2.0000    1.000000
     10 O     c    0.485300    0.049600    0.463700     -2.0000    1.000000
     11 O     c    0.448000    0.157900    0.079700     -2.0000    1.000000
     12 O     c    0.373900    0.337500    0.762500     -2.0000    1.000000
     13 O     c    0.661400    0.137800    0.231400     -2.0000    1.000000
     14 O     c    0.247800    0.227500    0.011500     -2.0000    1.000000
     15 O     c    0.160600    0.364100    0.250500     -2.0000    1.000000
     16 O     c    0.284300    0.472700    0.017400     -2.0000    1.000000
     17 O     c    0.262800    0.043700    0.967700     -2.0000    1.000000
     18 O     c    0.290400    0.150000    0.542500     -2.0000    1.000000

  Distance calculation :

  Cutoff for distances  =      2.000000 Angstroms

  Asymmetric unit site  Full lattice sites    No.  Distance      No.  Distance
      No.   At.No.            At.No.                (Angs)             (Angs)
       1   Re    core        O     core         1    1.6494        1    1.7281
                                                1    1.7298
       2   Re    core        O     core         1    1.6821        1    1.6881
                                                1    1.7564
       3   Re    core        O     core         1    1.6744        1    1.6823
                                                1    1.7646        1    1.7688
       4   Re    core        O     core         1    1.7079        1    1.7425
                                                1    1.7743        1    1.8070
       5   O     core        Re    core         1    1.7564
       6   O     core        Re    core         1    1.7743
       7   O     core        Re    core         1    1.7646
       8   O     core        Re    core         1    1.7298
       9   O     core        Re    core         1    1.6494
      10   O     core        Re    core         1    1.6823
      11   O     core        Re    core         1    1.6744
      12   O     core        Re    core         1    1.7281
      13   O     core        Re    core         1    1.7688
      14   O     core        Re    core         1    1.8070
      15   O     core        Re    core         1    1.6821
      16   O     core        Re    core         1    1.6881
      17   O     core        Re    core         1    1.7425
      18   O     core        Re    core         1    1.7079

*  General input information                                                   *

  Species output for all configurations :

  Species    Type    Atomic    Atomic    Charge       Radii (Angs)     Library
                     Number     Mass       (e)     Cova   Ionic  VDW   Symbol
    Re       Core       75     186.21     7.0000   1.350  0.000  2.010
    O        Core        8      16.00    -2.0000   0.730  0.000  1.360

  Lattice summation method               =    Ewald
  Accuracy factor for lattice sums       =    8.000

  Time limit = Infinity

*  Output for configuration   1                                                *

  Components of energy :

  Interatomic potentials     =           0.00000000 eV
  Monopole - monopole (real) =       -3411.60031253 eV
  Monopole - monopole (recip)=       -2044.40181168 eV
  Monopole - monopole (total)=       -5456.00212420 eV
  Total lattice energy       =       -5456.00212420 eV
  Total lattice energy       =         -526420.8024 kJ/(mole unit cells)

  Electrostatic potential at atomic positions :

 Site  Atomic      Potential                Derivatives (V/Angs)
 No.   Label          (V)                 x           y           z
     1 Re    c    -69.017645          -0.094040   -4.942601   -3.018294
     2 Re    c    -68.678025           0.843873   -4.182203   -2.936324
     3 Re    c    -68.594031           3.704664    3.931261   -0.268841
     4 Re    c    -67.758652          -2.837824    4.182665   -0.388678
     5 O     c     32.829311         -10.292636    6.892896   -4.469828
     6 O     c     34.614469          12.770682   -4.877021    3.666422
     7 O     c     34.281042           4.143891   -4.401277  -12.435479
     8 O     c     25.621259         -16.836218   -6.175286  -13.353324
     9 O     c     26.026378           4.354426  -26.131914    2.124996
    10 O     c     23.384624           8.777289   22.251057  -12.369115
    11 O     c     26.836246          16.140389   -1.271232   20.459865
    12 O     c     33.588143           9.342229    7.498977   -6.202075
    13 O     c     34.465486         -13.394397    5.083452   -3.188401
    14 O     c     32.868018          -4.852049   -2.456899  -13.167066
    15 O     c     28.032781          18.859793   -3.014077  -13.626450
    16 O     c     24.693707          -2.399878  -25.279293    3.532276
    17 O     c     21.498088          -7.186142   19.314515  -11.690407
    18 O     c     26.091747         -13.102182    0.061516   21.743208

  Total time to end of lattice properties =       0.0624 s

  Timing analysis for GULP :

  Task / Subroutine                                          Time (Seconds)
  Calculation of reciprocal space energy and derivatives          0.0468
  Calculation of real space energy using symmetry                 0.0156

  Job Finished at 11:37.04  9th November   2011