  Job Started  at 12:56.17  8th November   2011

  Number of CPUs =     1

  Total number of configurations input =   1

*  Input for Configuration =   1                                               *

  Formula = Rh4O6

  Number of irreducible atoms/shells =       2

  Total number atoms/shells =      10

  Dimensionality = 3               :  Bulk

  Symmetry :

  Crystal family                   :  Hexagonal
  Crystal class  (Groth - 1921)    :  Ditrigonal Scalenohedral

  Space group (centrosymmetric)    :  R -3 C

  Patterson group                  :  R -3 m

  Cartesian lattice vectors (Angstroms) :

        2.563550    1.480066    4.617800
       -2.563550    1.480066    4.617800
        0.000000   -2.960133    4.617800

  Primitive cell parameters :            Full cell parameters :

  a =   5.4851    alpha =  55.7268       a =   5.1271    alpha =  90.0000
  b =   5.4851    beta  =  55.7268       b =   5.1271    beta  =  90.0000
  c =   5.4851    gamma =  55.7268       c =  13.8534    gamma = 120.0000

  Initial volumes (Angstroms**3):

  Primitive cell =         105.125803    Full cell =         315.377410

  Temperature of configuration =  0.000     K

  Pressure of configuration =         0.000 GPa

  Fractional coordinates of asymmetric unit :

   No.  Atomic       x           y          z         Charge      Occupancy
        Label      (Frac)      (Frac)     (Frac)        (e)         (Frac)
      1 Rh    c    0.000000    0.000000    0.348100      3.0000    1.000000
      2 O     c    0.295100    0.000000    0.250000     -2.0000    1.000000

  Distance calculation :

  Cutoff for distances  =      2.000000 Angstroms

  Asymmetric unit site  Full lattice sites    No.  Distance      No.  Distance
      No.   At.No.            At.No.                (Angs)             (Angs)

*  General input information                                                   *

  Species output for all configurations :

  Species    Type    Atomic    Atomic    Charge       Radii (Angs)     Library
                     Number     Mass       (e)     Cova   Ionic  VDW   Symbol
    Rh       Core       45     102.91     3.0000   1.450  0.000  2.160
    O        Core        8      16.00    -2.0000   0.730  0.000  1.360

  Lattice summation method               =    Ewald
  Accuracy factor for lattice sums       =    8.000

  Time limit = Infinity

*  Output for configuration   1                                                *

  Components of energy :

  Interatomic potentials     =           0.00000000 eV
  Monopole - monopole (real) =        -131.52628521 eV
  Monopole - monopole (recip)=        -221.07548495 eV
  Monopole - monopole (total)=        -352.60177016 eV
  Total lattice energy :
    Primitive unit cell      =        -352.60177016 eV
    Non-primitive unit cell  =       -1057.80531047 eV
  Total lattice energy (in kJmol-1):
    Primitive unit cell      =          -34020.6808 kJ/(mole unit cells)
    Non-primitive unit cell  =         -102062.0424 kJ/(mole unit cells)

  Electrostatic potential at atomic positions :

 Site  Atomic      Potential                Derivatives (V/Angs)
 No.   Label          (V)                 x           y           z
     1 Rh    c    -34.096681          -0.000000   -0.000000    0.368801
     2 O     c     24.670281          -1.897423    0.000000   -0.000000

  Total time to end of lattice properties =       0.0156 s

  Timing analysis for GULP :

  Task / Subroutine                                          Time (Seconds)

  Job Finished at 12:56.17  8th November   2011