  Job Started  at 12:05.16  9th November   2011

  Number of CPUs =     1

  Total number of configurations input =   1

*  Input for Configuration =   1                                               *

  Formula = Ru2O4

  Number of irreducible atoms/shells =       2

  Total number atoms/shells =       6

  Dimensionality = 3               :  Bulk

  Symmetry :

  Crystal family                   :  Tetragonal
  Crystal class  (Groth - 1921)    :  Ditetragonal Dipyramidal

  Space group (centrosymmetric)    :  P 42/M N M

  Patterson group                  :  P 4/m m m

  Cartesian lattice vectors (Angstroms) :

        4.491980    0.000000    0.000000
        0.000000    4.491980    0.000000
        0.000000    0.000000    3.106600

  Cell parameters (Angstroms/Degrees):

  a =       4.4920    alpha =  90.0000
  b =       4.4920    beta  =  90.0000
  c =       3.1066    gamma =  90.0000

  Initial cell volume =          62.684615 Angs**3

  Temperature of configuration =  0.000     K

  Pressure of configuration =         0.000 GPa

  Fractional coordinates of asymmetric unit :

   No.  Atomic       x           y          z         Charge      Occupancy
        Label      (Frac)      (Frac)     (Frac)        (e)         (Frac)
      1 Ru    c    0.000000    0.000000    0.000000      4.0000    1.000000
      2 O     c    0.305800    0.305800    0.000000     -2.0000    1.000000

  Distance calculation :

  Cutoff for distances  =      2.000000 Angstroms

  Asymmetric unit site  Full lattice sites    No.  Distance      No.  Distance
      No.   At.No.            At.No.                (Angs)             (Angs)
       1   Ru    core        O     core         2    1.9426        4    1.9836
       2   O     core        Ru    core         1    1.9426        2    1.9836

*  General input information                                                   *

  Species output for all configurations :

  Species    Type    Atomic    Atomic    Charge       Radii (Angs)     Library
                     Number     Mass       (e)     Cova   Ionic  VDW   Symbol
    Ru       Core       44     101.07     4.0000   1.400  0.000  2.090
    O        Core        8      16.00    -2.0000   0.730  0.000  1.360

  Lattice summation method               =    Ewald
  Accuracy factor for lattice sums       =    8.000

  Time limit = Infinity

*  Output for configuration   1                                                *

  Components of energy :

  Interatomic potentials     =           0.00000000 eV
  Monopole - monopole (real) =         -82.35707676 eV
  Monopole - monopole (recip)=        -199.16483062 eV
  Monopole - monopole (total)=        -281.52190738 eV
  Total lattice energy       =        -281.52190738 eV
  Total lattice energy       =          -27162.5606 kJ/(mole unit cells)

  Electrostatic potential at atomic positions :

 Site  Atomic      Potential                Derivatives (V/Angs)
 No.   Label          (V)                 x           y           z
     1 Ru    c    -44.781534          -0.000000   -0.000000    0.000000
     2 O     c     25.598943           0.651039    0.651039   -0.000000

  Total time to end of lattice properties =       0.0000 s

  Timing analysis for GULP :

  Task / Subroutine                                          Time (Seconds)

  Job Finished at 12:05.16  9th November   2011