  Job Started  at 14:23.49  8th November   2011

  Number of CPUs =     1

  Total number of configurations input =   1

*  Input for Configuration =   1                                               *

  Formula = Sn2O2

  Number of irreducible atoms/shells =       2

  Total number atoms/shells =       4

  Dimensionality = 3               :  Bulk

  Symmetry :

  Crystal family                   :  Tetragonal
  Crystal class  (Groth - 1921)    :  Ditetragonal Dipyramidal

  Space group (centrosymmetric)    :  P 4/N M M

  Patterson group                  :  P 4/m m m

  Cartesian lattice vectors (Angstroms) :

        3.798600    0.000000    0.000000
        0.000000    3.798600    0.000000
        0.000000    0.000000    4.840800

  Cell parameters (Angstroms/Degrees):

  a =       3.7986    alpha =  90.0000
  b =       3.7986    beta  =  90.0000
  c =       4.8408    gamma =  90.0000

  Initial cell volume =          69.849655 Angs**3

  Temperature of configuration =  0.000     K

  Pressure of configuration =         0.000 GPa

  Fractional coordinates of asymmetric unit :

   No.  Atomic       x           y          z         Charge      Occupancy
        Label      (Frac)      (Frac)     (Frac)        (e)         (Frac)
      1 Sn    c    0.500000    0.000000    0.236900      2.0000    1.000000
      2 O     c    0.000000    0.000000    0.000000     -2.0000    1.000000

  Distance calculation :

  Cutoff for distances  =      2.000000 Angstroms

  Asymmetric unit site  Full lattice sites    No.  Distance      No.  Distance
      No.   At.No.            At.No.                (Angs)             (Angs)

*  General input information                                                   *

  Species output for all configurations :

  Species    Type    Atomic    Atomic    Charge       Radii (Angs)     Library
                     Number     Mass       (e)     Cova   Ionic  VDW   Symbol
    Sn       Core       50     118.71     2.0000   1.460  0.000  2.180
    O        Core        8      16.00    -2.0000   0.730  0.000  1.360

  Lattice summation method               =    Ewald
  Accuracy factor for lattice sums       =    8.000

  Time limit = Infinity

*  Output for configuration   1                                                *

  Components of energy :

  Interatomic potentials     =           0.00000000 eV
  Monopole - monopole (real) =         -19.31728988 eV
  Monopole - monopole (recip)=         -58.85565175 eV
  Monopole - monopole (total)=         -78.17294163 eV
  Total lattice energy       =         -78.17294163 eV
  Total lattice energy       =           -7542.4939 kJ/(mole unit cells)

  Electrostatic potential at atomic positions :

 Site  Atomic      Potential                Derivatives (V/Angs)
 No.   Label          (V)                 x           y           z
     1 Sn    c    -21.462971           0.000000    0.000000    8.254726
     2 O     c     17.623500          -0.000000    0.000000    0.000000

  Total time to end of lattice properties =       0.0000 s

  Timing analysis for GULP :

  Task / Subroutine                                          Time (Seconds)

  Job Finished at 14:23.49  8th November   2011