  Job Started  at 11:10.22  8th November   2011

  Number of CPUs =     1

  Total number of configurations input =   1

*  Input for Configuration =   1                                               *

  Formula = SrO

  Number of irreducible atoms/shells =       2

  Total number atoms/shells =       2

  Dimensionality = 3               :  Bulk

  Symmetry :

  Crystal family                   :  Cubic
  Crystal class  (Groth - 1921)    :  Cubic Hexakisoctahedral

  Space group (centrosymmetric)    :  F M 3 M

  Patterson group                  :  F m -3 m

  Cartesian lattice vectors (Angstroms) :

        0.000000    2.580100    2.580100
        2.580100    0.000000    2.580100
        2.580100    2.580100    0.000000

  Primitive cell parameters :            Full cell parameters :

  a =   3.6488    alpha =  60.0000       a =   5.1602    alpha =  90.0000
  b =   3.6488    beta  =  60.0000       b =   5.1602    beta  =  90.0000
  c =   3.6488    gamma =  60.0000       c =   5.1602    gamma =  90.0000

  Initial volumes (Angstroms**3):

  Primitive cell =          34.351018    Full cell =         137.404072

  Temperature of configuration =  0.000     K

  Pressure of configuration =         0.000 GPa

  Fractional coordinates of asymmetric unit :

   No.  Atomic       x           y          z         Charge      Occupancy
        Label      (Frac)      (Frac)     (Frac)        (e)         (Frac)
      1 Sr    c    0.500000    0.500000    0.500000      2.0000    1.000000
      2 O     c    0.000000    0.000000    0.000000     -2.0000    1.000000

*  General input information                                                   *

  Species output for all configurations :

  Species    Type    Atomic    Atomic    Charge       Radii (Angs)     Library
                     Number     Mass       (e)     Cova   Ionic  VDW   Symbol
    Sr       Core       38      87.62     2.0000   1.120  0.000  1.670
    O        Core        8      16.00    -2.0000   0.730  0.000  1.360

  Lattice summation method               =    Ewald
  Accuracy factor for lattice sums       =    8.000

  Time limit = Infinity

*  Output for configuration   1                                                *

  Components of energy :

  Interatomic potentials     =           0.00000000 eV
  Monopole - monopole (real) =          -4.17580220 eV
  Monopole - monopole (recip)=         -34.83742664 eV
  Monopole - monopole (total)=         -39.01322884 eV
  Total lattice energy :
    Primitive unit cell      =         -39.01322884 eV
    Non-primitive unit cell  =        -156.05291536 eV
  Total lattice energy (in kJmol-1):
    Primitive unit cell      =           -3764.1802 kJ/(mole unit cells)
    Non-primitive unit cell  =          -15056.7208 kJ/(mole unit cells)

  Electrostatic potential at atomic positions :

 Site  Atomic      Potential                Derivatives (V/Angs)
 No.   Label          (V)                 x           y           z
     1 Sr    c    -19.506614           0.000000   -0.000000    0.000000
     2 O     c     19.506614           0.000000    0.000000    0.000000

  Total time to end of lattice properties =       0.0000 s

  Timing analysis for GULP :

  Task / Subroutine                                          Time (Seconds)

  Job Finished at 11:10.22  8th November   2011