  Job Started  at 09:58.21  9th November   2011

  Number of CPUs =     1

  Total number of configurations input =   1

*  Input for Configuration =   1                                               *

  Formula = Ta4O10

  Number of irreducible atoms/shells =       6

  Total number atoms/shells =      14

  Dimensionality = 3               :  Bulk

  Symmetry :

  Crystal family                   :  Orthorhombic
  Crystal class  (Groth - 1921)    :  Orthorhombic Bipyramidal

  Space group (centrosymmetric)    :  P C C M

  Patterson group                  :  P m m m

  Cartesian lattice vectors (Angstroms) :

        6.217000    0.000000    0.000000
        0.000000    3.677000    0.000000
        0.000000    0.000000    7.794000

  Cell parameters (Angstroms/Degrees):

  a =       6.2170    alpha =  90.0000
  b =       3.6770    beta  =  90.0000
  c =       7.7940    gamma =  90.0000

  Initial cell volume =         178.170131 Angs**3

  Temperature of configuration =  0.000     K

  Pressure of configuration =         0.000 GPa

  Fractional coordinates of asymmetric unit :

   No.  Atomic       x           y          z         Charge      Occupancy
        Label      (Frac)      (Frac)     (Frac)        (e)         (Frac)
      1 Ta    c    0.000000    0.000000    0.000000      5.0000    1.000000
      2 Ta    c    0.500000    0.500000    0.000000      5.0000    1.000000
      3 O     c    0.000000    0.500000    0.000000     -2.0000    1.000000
      4 O     c    0.319500    0.997500    0.000000     -2.0000    1.000000
      5 O     c    0.000000    0.000000    0.250000     -2.0000    1.000000
      6 O     c    0.500000    0.500000    0.250000     -2.0000    1.000000

  Distance calculation :

  Cutoff for distances  =      2.000000 Angstroms

  Asymmetric unit site  Full lattice sites    No.  Distance      No.  Distance
      No.   At.No.            At.No.                (Angs)             (Angs)
       1   Ta    core        O     core         2    1.8385        2    1.9485
                                                2    1.9864
       2   Ta    core        O     core         2    1.9485
       3   O     core        Ta    core         2    1.8385
       4   O     core        Ta    core         1    1.9864
       5   O     core        Ta    core         2    1.9485
       6   O     core        Ta    core         2    1.9485

*  General input information                                                   *

  Species output for all configurations :

  Species    Type    Atomic    Atomic    Charge       Radii (Angs)     Library
                     Number     Mass       (e)     Cova   Ionic  VDW   Symbol
    Ta       Core       73     180.95     5.0000   1.430  0.000  2.130
    O        Core        8      16.00    -2.0000   0.730  0.000  1.360

  Lattice summation method               =    Ewald
  Accuracy factor for lattice sums       =    8.000

  Time limit = Infinity

*  Output for configuration   1                                                *

  Components of energy :

  Interatomic potentials     =           0.00000000 eV
  Monopole - monopole (real) =        -333.47775705 eV
  Monopole - monopole (recip)=        -444.39411910 eV
  Monopole - monopole (total)=        -777.87187615 eV
  Total lattice energy       =        -777.87187615 eV
  Total lattice energy       =          -75052.7452 kJ/(mole unit cells)

  Electrostatic potential at atomic positions :

 Site  Atomic      Potential                Derivatives (V/Angs)
 No.   Label          (V)                 x           y           z
     1 Ta    c    -54.492579           0.000000   -0.000000   -0.000000
     2 Ta    c    -49.772013           0.000000    0.000000   -0.000000
     3 O     c     27.750836          -0.000000    0.000000    0.000000
     4 O     c     25.982170          -2.865224   -0.122922    0.000000
     5 O     c     23.155658          -0.000000   -0.000000   -0.000000
     6 O     c     25.403623          -0.000000   -0.000000   -0.000000

  Total time to end of lattice properties =       0.0156 s

  Timing analysis for GULP :

  Task / Subroutine                                          Time (Seconds)
  Calculation of reciprocal space energy and derivatives          0.0156

  Job Finished at 09:58.21  9th November   2011