  Job Started  at 15:20.43  1st November   2011

  Number of CPUs =     1

  Total number of configurations input =   1

*  Input for Configuration =   1                                               *

  Formula = Ti4O6

  Number of irreducible atoms/shells =       2

  Total number atoms/shells =      10

  Dimensionality = 3               :  Bulk

  Symmetry :

  Crystal family                   :  Hexagonal
  Crystal class  (Groth - 1921)    :  Ditrigonal Scalenohedral

  Space group (centrosymmetric)    :  R -3 C

  Patterson group                  :  R -3 m

  Cartesian lattice vectors (Angstroms) :

        2.562850    1.479662    4.638000
       -2.562850    1.479662    4.638000
        0.000000   -2.959324    4.638000

  Primitive cell parameters :            Full cell parameters :

  a =   5.5017    alpha =  55.5278       a =   5.1257    alpha =  90.0000
  b =   5.5017    beta  =  55.5278       b =   5.1257    beta  =  90.0000
  c =   5.5017    gamma =  55.5278       c =  13.9140    gamma = 120.0000

  Initial volumes (Angstroms**3):

  Primitive cell =         105.528009    Full cell =         316.584027

  Temperature of configuration =  0.000     K

  Pressure of configuration =         0.000 GPa

  Fractional coordinates of asymmetric unit :

   No.  Atomic       x           y          z         Charge      Occupancy
        Label      (Frac)      (Frac)     (Frac)        (e)         (Frac)
      1 Ti    c    0.000000    0.000000    0.347000      3.0000    1.000000
      2 O     c    0.311300    0.000000    0.250000     -2.0000    1.000000

*  General input information                                                   *

  Species output for all configurations :

  Species    Type    Atomic    Atomic    Charge       Radii (Angs)     Library
                     Number     Mass       (e)     Cova   Ionic  VDW   Symbol
    Ti       Core       22      47.88     3.0000   1.470  0.000  2.190
    O        Core        8      16.00    -2.0000   0.730  0.000  1.360

  Lattice summation method               =    Ewald
  Accuracy factor for lattice sums       =    8.000

  Time limit = Infinity

*  Output for configuration   1                                                *

  Components of energy :

  Interatomic potentials     =           0.00000000 eV
  Monopole - monopole (real) =        -129.64363611 eV
  Monopole - monopole (recip)=        -220.52497269 eV
  Monopole - monopole (total)=        -350.16860880 eV
  Total lattice energy :
    Primitive unit cell      =        -350.16860880 eV
    Non-primitive unit cell  =       -1050.50582639 eV
  Total lattice energy (in kJmol-1):
    Primitive unit cell      =          -33785.9179 kJ/(mole unit cells)
    Non-primitive unit cell  =         -101357.7538 kJ/(mole unit cells)

  Electrostatic potential at atomic positions :

 Site  Atomic      Potential                Derivatives (V/Angs)
 No.   Label          (V)                 x           y           z
     1 Ti    c    -33.762061          -0.000000   -0.000000   -1.273066
     2 O     c     24.599374          -1.991107    0.000000   -0.000000

  Total time to end of lattice properties =       0.0000 s

  Timing analysis for GULP :

  Task / Subroutine                                          Time (Seconds)

  Job Finished at 15:20.43  1st November   2011