  Job Started  at 14:40.31  1st November   2011

  Number of CPUs =     1

  Total number of configurations input =   1

*  Input for Configuration =   1                                               *

  Formula = TiO

  Number of irreducible atoms/shells =       2

  Total number atoms/shells =       2

  Dimensionality = 3               :  Bulk

  Symmetry :

  Crystal family                   :  Cubic
  Crystal class  (Groth - 1921)    :  Cubic Hexakisoctahedral

  Space group (centrosymmetric)    :  F M 3 M

  Patterson group                  :  F m -3 m

  Cartesian lattice vectors (Angstroms) :

        0.000000    2.092000    2.092000
        2.092000    0.000000    2.092000
        2.092000    2.092000    0.000000

  Primitive cell parameters :            Full cell parameters :

  a =   2.9585    alpha =  60.0000       a =   4.1840    alpha =  90.0000
  b =   2.9585    beta  =  60.0000       b =   4.1840    beta  =  90.0000
  c =   2.9585    gamma =  60.0000       c =   4.1840    gamma =  90.0000

  Initial volumes (Angstroms**3):

  Primitive cell =          18.311125    Full cell =          73.244502

  Temperature of configuration =  0.000     K

  Pressure of configuration =         0.000 GPa

  Fractional coordinates of asymmetric unit :

   No.  Atomic       x           y          z         Charge      Occupancy
        Label      (Frac)      (Frac)     (Frac)        (e)         (Frac)
      1 Ti    c    0.000000    0.000000    0.000000      2.0000    1.000000
      2 O     c    0.500000    0.500000    0.500000     -2.0000    1.000000

*  General input information                                                   *

  Species output for all configurations :

  Species    Type    Atomic    Atomic    Charge       Radii (Angs)     Library
                     Number     Mass       (e)     Cova   Ionic  VDW   Symbol
    Ti       Core       22      47.88     2.0000   1.470  0.000  2.190
    O        Core        8      16.00    -2.0000   0.730  0.000  1.360

  Lattice summation method               =    Ewald
  Accuracy factor for lattice sums       =    8.000

  Time limit = Infinity

*  Output for configuration   1                                                *

  Components of energy :

  Interatomic potentials     =           0.00000000 eV
  Monopole - monopole (real) =          -5.15008951 eV
  Monopole - monopole (recip)=         -42.96560443 eV
  Monopole - monopole (total)=         -48.11569394 eV
  Total lattice energy :
    Primitive unit cell      =         -48.11569394 eV
    Non-primitive unit cell  =        -192.46277578 eV
  Total lattice energy (in kJmol-1):
    Primitive unit cell      =           -4642.4289 kJ/(mole unit cells)
    Non-primitive unit cell  =          -18569.7158 kJ/(mole unit cells)

  Electrostatic potential at atomic positions :

 Site  Atomic      Potential                Derivatives (V/Angs)
 No.   Label          (V)                 x           y           z
     1 Ti    c    -24.057847          -0.000000   -0.000000   -0.000000
     2 O     c     24.057847          -0.000000   -0.000000   -0.000000

  Total time to end of lattice properties =       0.0000 s

  Timing analysis for GULP :

  Task / Subroutine                                          Time (Seconds)

  Job Finished at 14:40.31  1st November   2011