  Job Started  at 15:50.07  1st November   2011

  Number of CPUs =     1

  Total number of configurations input =   1

*  Input for Configuration =   1                                               *

  Formula = V4O6

  Number of irreducible atoms/shells =       2

  Total number atoms/shells =      10

  Dimensionality = 3               :  Bulk

  Symmetry :

  Crystal family                   :  Hexagonal
  Crystal class  (Groth - 1921)    :  Ditrigonal Scalenohedral

  Space group (centrosymmetric)    :  R -3 C

  Patterson group                  :  R -3 m

  Cartesian lattice vectors (Angstroms) :

        2.476000    1.429519    4.667333
       -2.476000    1.429519    4.667333
        0.000000   -2.859039    4.667333

  Primitive cell parameters :            Full cell parameters :

  a =   5.4734    alpha =  53.7916       a =   4.9520    alpha =  90.0000
  b =   5.4734    beta  =  53.7916       b =   4.9520    beta  =  90.0000
  c =   5.4734    gamma =  53.7916       c =  14.0020    gamma = 120.0000

  Initial volumes (Angstroms**3):

  Primitive cell =          99.119870    Full cell =         297.359609

  Temperature of configuration =  0.000     K

  Pressure of configuration =         0.000 GPa

  Fractional coordinates of asymmetric unit :

   No.  Atomic       x           y          z         Charge      Occupancy
        Label      (Frac)      (Frac)     (Frac)        (e)         (Frac)
      1 V     c    0.000000    0.000000    0.346300      3.0000    1.000000
      2 O     c    0.315400    0.000000    0.250000     -2.0000    1.000000

*  General input information                                                   *

  Species output for all configurations :

  Species    Type    Atomic    Atomic    Charge       Radii (Angs)     Library
                     Number     Mass       (e)     Cova   Ionic  VDW   Symbol
    V        Core       23      50.94     3.0000   1.330  0.000  1.990
    O        Core        8      16.00    -2.0000   0.730  0.000  1.360

  Lattice summation method               =    Ewald
  Accuracy factor for lattice sums       =    8.000

  Time limit = Infinity

*  Output for configuration   1                                                *

  Components of energy :

  Interatomic potentials     =           0.00000000 eV
  Monopole - monopole (real) =        -132.13822513 eV
  Monopole - monopole (recip)=        -225.08489604 eV
  Monopole - monopole (total)=        -357.22312116 eV
  Total lattice energy :
    Primitive unit cell      =        -357.22312116 eV
    Non-primitive unit cell  =       -1071.66936349 eV
  Total lattice energy (in kJmol-1):
    Primitive unit cell      =          -34466.5705 kJ/(mole unit cells)
    Non-primitive unit cell  =         -103399.7116 kJ/(mole unit cells)

  Electrostatic potential at atomic positions :

 Site  Atomic      Potential                Derivatives (V/Angs)
 No.   Label          (V)                 x           y           z
     1 V     c    -34.414937          -0.000000   -0.000000   -1.696696
     2 O     c     25.122250          -1.932008    0.000000   -0.000000

  Total time to end of lattice properties =       0.0156 s

  Timing analysis for GULP :

  Task / Subroutine                                          Time (Seconds)

  Job Finished at 15:50.07  1st November   2011