  Job Started  at 15:35.25  1st November   2011

  Number of CPUs =     1

  Total number of configurations input =   1

*  Input for Configuration =   1                                               *

  Formula = VO

  Number of irreducible atoms/shells =       2

  Total number atoms/shells =       2

  Dimensionality = 3               :  Bulk

  Symmetry :

  Crystal family                   :  Cubic
  Crystal class  (Groth - 1921)    :  Cubic Hexakisoctahedral

  Space group (centrosymmetric)    :  F M 3 M

  Patterson group                  :  F m -3 m

  Cartesian lattice vectors (Angstroms) :

        0.000000    2.035500    2.035500
        2.035500    0.000000    2.035500
        2.035500    2.035500    0.000000

  Primitive cell parameters :            Full cell parameters :

  a =   2.8786    alpha =  60.0000       a =   4.0710    alpha =  90.0000
  b =   2.8786    beta  =  60.0000       b =   4.0710    beta  =  90.0000
  c =   2.8786    gamma =  60.0000       c =   4.0710    gamma =  90.0000

  Initial volumes (Angstroms**3):

  Primitive cell =          16.867212    Full cell =          67.468850

  Temperature of configuration =  0.000     K

  Pressure of configuration =         0.000 GPa

  Fractional coordinates of asymmetric unit :

   No.  Atomic       x           y          z         Charge      Occupancy
        Label      (Frac)      (Frac)     (Frac)        (e)         (Frac)
      1 V     c    0.500000    0.500000    0.500000      2.0000    1.000000
      2 O     c    0.000000    0.000000    0.000000     -2.0000    1.000000

*  General input information                                                   *

  Species output for all configurations :

  Species    Type    Atomic    Atomic    Charge       Radii (Angs)     Library
                     Number     Mass       (e)     Cova   Ionic  VDW   Symbol
    V        Core       23      50.94     2.0000   1.330  0.000  1.990
    O        Core        8      16.00    -2.0000   0.730  0.000  1.360

  Lattice summation method               =    Ewald
  Accuracy factor for lattice sums       =    8.000

  Time limit = Infinity

*  Output for configuration   1                                                *

  Components of energy :

  Interatomic potentials     =           0.00000000 eV
  Monopole - monopole (real) =          -5.29304213 eV
  Monopole - monopole (recip)=         -44.15821394 eV
  Monopole - monopole (total)=         -49.45125607 eV
  Total lattice energy :
    Primitive unit cell      =         -49.45125607 eV
    Non-primitive unit cell  =        -197.80502428 eV
  Total lattice energy (in kJmol-1):
    Primitive unit cell      =           -4771.2903 kJ/(mole unit cells)
    Non-primitive unit cell  =          -19085.1611 kJ/(mole unit cells)

  Electrostatic potential at atomic positions :

 Site  Atomic      Potential                Derivatives (V/Angs)
 No.   Label          (V)                 x           y           z
     1 V     c    -24.725628           0.000000    0.000000    0.000000
     2 O     c     24.725628          -0.000000   -0.000000   -0.000000

  Total time to end of lattice properties =       0.0156 s

  Timing analysis for GULP :

  Task / Subroutine                                          Time (Seconds)
  Symmetry generation of equivalent positions                     0.0156

  Job Finished at 15:35.25  1st November   2011