  Job Started  at 11:17.51  9th November   2011

  Number of CPUs =     1

  Total number of configurations input =   1

*  Input for Configuration =   1                                               *

  Formula = W8O24

  Number of irreducible atoms/shells =       8

  Total number atoms/shells =      32

  Dimensionality = 3               :  Bulk

  Symmetry :

  Crystal family                   :  Monoclinic
  Crystal class  (Groth - 1921)    :  Monoclinic Prismatic

  Space group (centrosymmetric)    :  P 21/C

  Patterson group                  :  P 2/m

  Cartesian lattice vectors (Angstroms) :

        7.688300    0.000000    0.000000
        0.000000    7.539300    0.000000
       -7.571863    0.000000    7.296755

  Cell parameters (Angstroms/Degrees):

  a =       7.6883    alpha =  90.0000
  b =       7.5393    beta  = 136.0600
  c =      10.5155    gamma =  90.0000

  Initial cell volume =         422.952019 Angs**3

  Temperature of configuration =  0.000     K

  Pressure of configuration =         0.000 GPa

  Fractional coordinates of asymmetric unit :

   No.  Atomic       x           y          z         Charge      Occupancy
        Label      (Frac)      (Frac)     (Frac)        (e)         (Frac)
      1 W     c    0.534000    0.023000    0.750000      6.0000    1.000000
      2 W     c    0.028000    0.037000    0.746000      6.0000    1.000000
      3 O     c    0.206000    0.042000    0.995000     -2.0000    1.000000
      4 O     c    0.225000    0.474000    0.007000     -2.0000    1.000000
      5 O     c    0.998000    0.262000    0.712000     -2.0000    1.000000
      6 O     c    0.519000    0.259000    0.789000     -2.0000    1.000000
      7 O     c    0.716000    0.043000    0.708000     -2.0000    1.000000
      8 O     c    0.714000    0.487000    0.721000     -2.0000    1.000000

  Distance calculation :

  Cutoff for distances  =      2.000000 Angstroms

  Asymmetric unit site  Full lattice sites    No.  Distance      No.  Distance
      No.   At.No.            At.No.                (Angs)             (Angs)
       1   W     core        O     core         1    1.7509        1    1.8481
                                                1    1.8524        1    1.9253
       2   W     core        O     core         1    1.7146        1    1.7905
                                                1    1.8894        1    1.9064
       3   O     core        W     core         1    1.8894        1    1.9253
       4   O     core        W     core         1    1.8524        1    1.9064
       5   O     core        W     core         1    1.7146
       6   O     core        W     core         1    1.8481
       7   O     core        W     core         1    1.7509
       8   O     core        W     core         1    1.7905

*  General input information                                                   *

  Species output for all configurations :

  Species    Type    Atomic    Atomic    Charge       Radii (Angs)     Library
                     Number     Mass       (e)     Cova   Ionic  VDW   Symbol
    W        Core       74     183.85     6.0000   1.370  0.000  2.040
    O        Core        8      16.00    -2.0000   0.730  0.000  1.360

  Lattice summation method               =    Ewald
  Accuracy factor for lattice sums       =    8.000

  Time limit = Infinity

*  Output for configuration   1                                                *

  Components of energy :

  Interatomic potentials     =           0.00000000 eV
  Monopole - monopole (real) =       -1177.01433082 eV
  Monopole - monopole (recip)=        -982.85838743 eV
  Monopole - monopole (total)=       -2159.87271825 eV
  Total lattice energy       =       -2159.87271825 eV
  Total lattice energy       =         -208394.7006 kJ/(mole unit cells)

  Electrostatic potential at atomic positions :

 Site  Atomic      Potential                Derivatives (V/Angs)
 No.   Label          (V)                 x           y           z
     1 W     c    -62.256298          -0.781742   -0.416032    1.123089
     2 W     c    -62.152109          -0.917982   -1.713143    0.160110
     3 O     c     28.101189           4.431546   -3.486530   -0.665823
     4 O     c     28.488235           4.095513    3.009182    0.776778
     5 O     c     28.363428          -2.169079  -11.300518    4.203289
     6 O     c     27.223453           2.575785   -4.066394   -3.791229
     7 O     c     27.792179          -9.340868   -1.594874    4.349258
     8 O     c     26.774473           8.553545    4.720187    2.564160

  Total time to end of lattice properties =       0.0312 s

  Timing analysis for GULP :

  Task / Subroutine                                          Time (Seconds)
  Calculation of reciprocal space energy and derivatives          0.0156

  Job Finished at 11:17.51  9th November   2011