  Job Started  at 15:05.20  2nd November   2011

  Number of CPUs =     1

  Total number of configurations input =   1

*  Input for Configuration =   1                                               *

  Formula = Zn2O2

  Number of irreducible atoms/shells =       2

  Total number atoms/shells =       4

  Dimensionality = 3               :  Bulk

  Symmetry :

  Crystal family                   :  Hexagonal
  Crystal class  (Groth - 1921)    :  Dihexagonal Pyramidal

  Space group (noncentrosymmetric) :  P 63 M C

  Patterson group                  :  P 6/m m m

  Cartesian lattice vectors (Angstroms) :

        3.253100    0.000000    0.000000
       -1.626550    2.817267    0.000000
        0.000000    0.000000    5.213100

  Cell parameters (Angstroms/Degrees):

  a =       3.2531    alpha =  90.0000
  b =       3.2531    beta  =  90.0000
  c =       5.2131    gamma = 120.0000

  Initial cell volume =          47.777290 Angs**3

  Temperature of configuration =  0.000     K

  Pressure of configuration =         0.000 GPa

  Fractional coordinates of asymmetric unit :

   No.  Atomic       x           y          z         Charge      Occupancy
        Label      (Frac)      (Frac)     (Frac)        (e)         (Frac)
      1 Zn    c    0.333333    0.666667    0.000000      2.0000    1.000000
      2 O     c    0.333333    0.666667    0.382000     -2.0000    1.000000

  Distance calculation :

  Cutoff for distances  =      2.000000 Angstroms

  Asymmetric unit site  Full lattice sites    No.  Distance      No.  Distance
      No.   At.No.            At.No.                (Angs)             (Angs)
       1   Zn    core        O     core         3    1.9763        1    1.9914
       2   O     core        Zn    core         3    1.9763        1    1.9914

*  General input information                                                   *

  Species output for all configurations :

  Species    Type    Atomic    Atomic    Charge       Radii (Angs)     Library
                     Number     Mass       (e)     Cova   Ionic  VDW   Symbol
    Zn       Core       30      65.39     2.0000   1.450  0.000  2.160
    O        Core        8      16.00    -2.0000   0.730  0.000  1.360

  Lattice summation method               =    Ewald
  Accuracy factor for lattice sums       =    8.000

  Time limit = Infinity

*  Output for configuration   1                                                *

  Components of energy :

  Interatomic potentials     =           0.00000000 eV
  Monopole - monopole (real) =         -25.11430960 eV
  Monopole - monopole (recip)=         -70.41243659 eV
  Monopole - monopole (total)=         -95.52674619 eV
  Total lattice energy       =         -95.52674619 eV
  Total lattice energy       =           -9216.8707 kJ/(mole unit cells)

  Electrostatic potential at atomic positions :

 Site  Atomic      Potential                Derivatives (V/Angs)
 No.   Label          (V)                 x           y           z
     1 Zn    c    -23.881687           0.000000   -0.000000    0.012262
     2 O     c     23.881687          -0.000000    0.000000    0.012262

  Total time to end of lattice properties =       0.0000 s

  Timing analysis for GULP :

  Task / Subroutine                                          Time (Seconds)

  Job Finished at 15:05.20  2nd November   2011