  Job Started  at 11:32.22  8th November   2011

  Number of CPUs =     1

  Total number of configurations input =   1

*  Input for Configuration =   1                                               *

  Formula = Zr4O8

  Number of irreducible atoms/shells =       3

  Total number atoms/shells =      12

  Dimensionality = 3               :  Bulk

  Symmetry :

  Crystal family                   :  Monoclinic
  Crystal class  (Groth - 1921)    :  Monoclinic Prismatic

  Space group (centrosymmetric)    :  P 21/C

  Patterson group                  :  P 2/m

  Cartesian lattice vectors (Angstroms) :

        5.145500    0.000000    0.000000
        0.000000    5.207550    0.000000
       -0.852566   -0.091759    5.241066

  Cell parameters (Angstroms/Degrees):

  a =       5.1455    alpha =  90.9900
  b =       5.2075    beta  =  99.2380
  c =       5.3107    gamma =  90.0000

  Initial cell volume =         140.436726 Angs**3

  Temperature of configuration =  0.000     K

  Pressure of configuration =         0.000 GPa

  Fractional coordinates of asymmetric unit :

   No.  Atomic       x           y          z         Charge      Occupancy
        Label      (Frac)      (Frac)     (Frac)        (e)         (Frac)
      1 Zr    c    0.275820    0.041120    0.208220      4.0000    1.000000
      2 O     c    0.070320    0.335910    0.340610     -2.0000    1.000000
      3 O     c    0.442320    0.754910    0.478910     -2.0000    1.000000

  Distance calculation :

  Cutoff for distances  =      2.000000 Angstroms

  Asymmetric unit site  Full lattice sites    No.  Distance      No.  Distance
      No.   At.No.            At.No.                (Angs)             (Angs)

*  General input information                                                   *

  Species output for all configurations :

  Species    Type    Atomic    Atomic    Charge       Radii (Angs)     Library
                     Number     Mass       (e)     Cova   Ionic  VDW   Symbol
    Zr       Core       40      91.22     4.0000   1.560  0.000  2.330
    O        Core        8      16.00    -2.0000   0.730  0.000  1.360

  Lattice summation method               =    Ewald
  Accuracy factor for lattice sums       =    8.000

  Time limit = Infinity

*  Output for configuration   1                                                *

  Components of energy :

  Interatomic potentials     =           0.00000000 eV
  Monopole - monopole (real) =        -201.02844196 eV
  Monopole - monopole (recip)=        -325.65343384 eV
  Monopole - monopole (total)=        -526.68187580 eV
  Total lattice energy       =        -526.68187580 eV
  Total lattice energy       =          -50816.7499 kJ/(mole unit cells)

  Electrostatic potential at atomic positions :

 Site  Atomic      Potential                Derivatives (V/Angs)
 No.   Label          (V)                 x           y           z
     1 Zr    c    -42.215158           2.042037    0.224842    0.702254
     2 O     c     22.929293           0.997837   -0.399298    1.528447
     3 O     c     24.313345           2.842589    0.108702   -0.227193

  Total time to end of lattice properties =       0.0156 s

  Timing analysis for GULP :

  Task / Subroutine                                          Time (Seconds)

  Job Finished at 11:32.22  8th November   2011